19

Cr	    0.2652	   -0.0585	   -0.0000
F	   -2.6664	    1.2931	    0.0002
O	    0.3755	    2.9406	    0.0000
O	    2.4187	   -0.0885	   -2.0875
O	    2.4180	   -0.0889	    2.0880
C	   -1.9259	    0.1766	    0.0001
C	   -1.5402	   -0.3869	    1.2435
C	   -0.7308	   -1.5599	    1.2276
C	   -0.3588	   -2.1764	   -0.0004
C	   -0.7308	   -1.5595	   -1.2282
C	   -1.5403	   -0.3865	   -1.2436
C	    0.3386	    1.7745	    0.0000
C	    1.5834	   -0.0684	   -1.2715
C	    1.5831	   -0.0686	    1.2717
H	   -1.8287	    0.1112	    2.1776
H	    0.2879	   -3.0632	   -0.0006
H	   -0.3825	   -1.9842	   -2.1803
H	   -0.3824	   -1.9850	    2.1796
H	   -1.8289	    0.1119	   -2.1776
