25

Ti	    0.0003	    0.0692	    0.0867
Cl	    0.0329	    2.2298	   -0.6367
O	   -0.0055	    0.7711	    2.1327
C	    2.1047	   -0.6263	    1.0032
H	    2.3089	   -0.5658	    2.0802
C	    1.4984	   -1.7339	    0.3482
H	    1.1992	   -2.6741	    0.8251
C	   -1.5359	   -1.0747	   -1.2739
H	   -1.2619	   -1.4503	   -2.2669
C	    1.9524	   -0.1184	   -1.2387
H	    2.0097	    0.4265	   -2.1888
C	   -1.9478	   -0.9640	    0.9902
H	   -1.9935	   -1.2238	    2.0560
C	    2.3704	    0.3787	    0.0324
H	    2.8076	    1.3679	    0.2133
C	    1.4206	   -1.4236	   -1.0469
H	    1.0530	   -2.0908	   -1.8347
C	   -2.3488	    0.2778	    0.3997
H	   -2.7837	    1.1439	    0.9163
C	   -2.1193	    0.1949	   -0.9998
H	   -2.3136	    0.9870	   -1.7313
C	   -1.4583	   -1.8020	   -0.0414
H	   -1.0990	   -2.8300	    0.0784
H	    0.7421	    1.3750	    2.3211
H	   -0.8095	    1.2861	    2.3483
