68

Re	    0.0057	   -0.1160	    0.2901
P	    2.3807	    0.0973	   -0.1820
P	   -2.3684	    0.0734	   -0.1823
O	   -0.1412	   -3.0246	    1.0825
O	   -0.0685	    2.1624	    2.2759
N	   -0.0559	   -1.8895	    0.6928
N	   -0.0175	    1.2971	    1.4396
C	    2.8389	    1.9054	   -0.4565
C	    2.0062	    2.5404	   -1.5753
C	    4.3347	    2.1824	   -0.6444
C	    3.4937	   -0.4361	    1.2391
C	    3.2298	   -1.9032	    1.5984
C	    3.2882	    0.4753	    2.4550
C	    2.9987	   -0.8258	   -1.7090
C	    2.1463	   -2.0641	   -2.0140
C	    4.4953	   -1.1658	   -1.6967
C	   -2.8591	    1.5925	   -1.1710
C	   -2.3949	    2.8633	   -0.4483
C	   -2.3274	    1.5521	   -2.6078
C	   -3.1326	   -1.4158	   -1.0458
C	   -2.1860	   -2.0600	   -2.0672
C	   -4.5226	   -1.1603	   -1.6441
C	   -3.3064	    0.2646	    1.4480
C	   -3.1576	   -1.0044	    2.2966
C	   -4.7624	    0.7374	    1.3822
H	    0.0273	    0.2131	   -1.4145
H	    2.5059	    2.3576	    0.5031
H	    2.2317	    3.6250	   -1.6418
H	    0.9230	    2.4120	   -1.3892
H	    2.2350	    2.0931	   -2.5656
H	    4.5171	    3.2771	   -0.6220
H	    4.9636	    1.7275	    0.1460
H	    4.6958	    1.8159	   -1.6266
H	    4.5399	   -0.3337	    0.8781
H	    3.9211	   -2.2226	    2.4059
H	    2.1923	   -2.0446	    1.9589
H	    3.3783	   -2.5874	    0.7402
H	    3.8774	    0.0927	    3.3141
H	    2.2215	    0.5005	    2.7578
H	    3.6124	    1.5180	    2.2688
H	    2.8090	   -0.0808	   -2.5140
H	    2.4850	   -2.5299	   -2.9630
H	    2.2246	   -2.8275	   -1.2139
H	    1.0771	   -1.7962	   -2.1088
H	    4.7910	   -1.5733	   -2.6860
H	    4.7280	   -1.9458	   -0.9443
H	    5.1409	   -0.2919	   -1.4910
H	   -3.9703	    1.5734	   -1.2002
H	   -2.7234	    3.7599	   -1.0138
H	   -2.7959	    2.9474	    0.5806
H	   -1.2890	    2.8861	   -0.3718
H	   -2.6106	    2.4857	   -3.1372
H	   -1.2217	    1.4670	   -2.6124
H	   -2.7322	    0.7010	   -3.1887
H	   -3.2358	   -2.1295	   -0.1990
H	   -2.6454	   -2.9902	   -2.4622
H	   -1.2136	   -2.3162	   -1.6075
H	   -1.9848	   -1.3902	   -2.9266
H	   -4.9527	   -2.1160	   -2.0098
H	   -5.2356	   -0.7323	   -0.9153
H	   -4.4737	   -0.4743	   -2.5137
H	   -2.7001	    1.0609	    1.9332
H	   -3.4835	   -0.8038	    3.3378
H	   -2.1081	   -1.3584	    2.3269
H	   -3.7894	   -1.8310	    1.9097
H	   -5.1208	    0.9718	    2.4066
H	   -5.4349	   -0.0460	    0.9791
H	   -4.8948	    1.6527	    0.7726
