63
ACUTAU Mo total_charge=-1 EN=18 VN=1 MoL₅X₁ heatmap_gray_cell
Mo	   -0.6015	    0.0078	   -0.5883
S	    0.9657	    1.0814	   -1.9999
S	   -1.7779	    2.0638	   -0.8495
S	    0.1268	   -2.0133	   -1.5821
S	   -2.7654	   -0.9172	   -0.9707
S	   -1.1725	    0.1434	    1.7556
P	    1.5849	   -0.3098	    0.6566
N	    2.0923	    4.2431	   -3.6173
N	   -1.7289	    5.5560	   -2.1511
N	   -0.8029	   -5.4048	   -2.8296
N	   -4.7376	   -3.8130	   -2.2152
C	   -0.7852	    3.1582	   -1.7942
C	   -1.2910	    4.4731	   -2.0054
C	    0.4443	    2.7386	   -2.2850
C	    1.3276	    3.5778	   -3.0175
C	   -1.2841	   -3.0252	   -1.9033
C	   -1.0442	   -4.3270	   -2.4195
C	   -2.5519	   -2.5096	   -1.6720
C	   -3.7401	   -3.2347	   -1.9786
C	   -2.8576	    0.6984	    1.9762
C	   -3.9135	   -0.2351	    2.0369
H	   -3.6926	   -1.3038	    1.9031
C	   -5.2270	    0.2027	    2.2594
H	   -6.0447	   -0.5339	    2.2993
C	   -5.5014	    1.5707	    2.4232
H	   -6.5348	    1.9116	    2.5907
C	   -4.4513	    2.5013	    2.3693
H	   -4.6570	    3.5757	    2.4960
C	   -3.1346	    2.0704	    2.1482
H	   -2.3088	    2.7956	    2.1034
C	    1.4676	   -1.4290	    2.1294
C	    0.7396	   -2.6300	    1.9856
H	    0.2384	   -2.8465	    1.0287
C	    0.6338	   -3.5245	    3.0590
H	    0.0638	   -4.4575	    2.9321
C	    1.2298	   -3.2200	    4.2935
H	    1.1355	   -3.9175	    5.1402
C	    1.9297	   -2.0141	    4.4488
H	    2.3817	   -1.7578	    5.4195
C	    2.0502	   -1.1206	    3.3726
H	    2.5844	   -0.1703	    3.5117
C	    2.2851	    1.2740	    1.2964
C	    3.6149	    1.3355	    1.7662
H	    4.2436	    0.4324	    1.7548
C	    4.1467	    2.5505	    2.2247
H	    5.1859	    2.5886	    2.5862
C	    3.3608	    3.7138	    2.2085
H	    3.7827	    4.6691	    2.5570
C	    2.0413	    3.6584	    1.7325
H	    1.4232	    4.5683	    1.7008
C	    1.5028	    2.4454	    1.2796
H	    0.4712	    2.4028	    0.8971
C	    3.0085	   -1.0271	   -0.2822
C	    3.2279	   -2.4193	   -0.3044
H	    2.5988	   -3.0870	    0.3001
C	    4.2519	   -2.9627	   -1.0940
H	    4.4065	   -4.0523	   -1.1041
C	    5.0668	   -2.1250	   -1.8701
H	    5.8666	   -2.5540	   -2.4933
C	    4.8549	   -0.7377	   -1.8514
H	    5.4855	   -0.0710	   -2.4591
C	    3.8316	   -0.1887	   -1.0656
H	    3.6683	    0.8977	   -1.0653
