42
ADUHUD Mo total_charge=+1 EN=18 VN=1 MoL₆X₁ heatmap_gray_cell
Mo	    0.3923	   -0.5142	   -0.0003
C	    2.1066	   -1.2892	    1.3431
H	    1.9795	   -1.5635	    2.3973
C	    1.9506	   -2.1704	    0.2174
H	    1.6455	   -3.2233	    0.2690
C	    2.2664	   -1.4520	   -0.9859
H	    2.2788	   -1.8695	   -1.9999
C	    2.7232	   -0.1366	   -0.6040
C	    2.6213	   -0.0339	    0.8476
C	    3.0223	    1.1675	    1.5069
H	    2.9629	    1.2444	    2.6025
C	    3.5200	    2.2069	    0.7370
H	    3.8615	    3.1305	    1.2275
C	    3.6244	    2.1036	   -0.6874
H	    4.0443	    2.9504	   -1.2505
C	    3.2286	    0.9609	   -1.3645
H	    3.3245	    0.8802	   -2.4571
C	   -1.4498	    0.8545	    0.9199
H	   -1.8439	    0.7484	    1.9406
C	   -0.2684	    1.5853	    0.6293
H	    0.3958	    2.0815	    1.3485
C	   -0.1019	    1.5704	   -0.8054
H	    0.7186	    2.0449	   -1.3595
C	   -1.1840	    0.8311	   -1.3493
H	   -1.3314	    0.6943	   -2.4305
C	   -2.3192	    0.7646	   -0.3370
C	   -3.2789	    1.9964	   -0.4342
H	   -2.7838	    2.9406	   -0.1325
H	   -3.5678	    2.1052	   -1.5009
C	   -4.4998	    1.6145	    0.4294
H	   -4.4138	    2.0505	    1.4446
H	   -5.4336	    2.0220	   -0.0030
C	   -4.5005	    0.0602	    0.4905
H	   -5.4592	   -0.3824	    0.1599
H	   -4.3419	   -0.2912	    1.5305
C	   -3.3317	   -0.3920	   -0.4064
H	   -3.6633	   -0.4888	   -1.4614
H	   -2.9122	   -1.3716	   -0.1119
C	   -0.5578	   -1.5816	   -1.3487
O	   -1.0373	   -2.2816	   -2.1432
C	   -0.7386	   -1.4777	    1.2852
O	   -1.3296	   -2.1186	    2.0551
