36
ADUJEP Mo total_charge=+1 EN=18 VN=3 MoL₅X₃ heatmap_gray_cell
Mo	   -0.6274	   -0.3003	    0.4067
Br	   -1.0909	    2.0942	   -0.5147
Br	    4.7930	   -0.4503	   -0.3242
C	    0.1009	    0.6815	    1.9589
C	    0.8249	   -0.1273	   -1.4765
H	    0.6803	    0.6396	   -2.2457
C	    0.2788	   -1.4297	   -1.4942
H	   -0.3550	   -1.8483	   -2.2861
C	    0.6762	   -2.0972	   -0.2785
H	    0.4749	   -3.1438	   -0.0285
C	    1.4817	   -1.2021	    0.4847
H	    2.0172	   -1.4328	    1.4131
C	    1.5652	    0.0498	   -0.2495
C	    2.4497	    1.2221	    0.0643
H	    2.6710	    1.2597	    1.1487
H	    1.9141	    2.1602	   -0.2005
C	    3.7613	    1.1724	   -0.7200
H	    4.4086	    2.0277	   -0.4540
H	    3.5954	    1.1727	   -1.8135
C	   -1.9143	   -2.1272	    0.9108
H	   -1.5891	   -3.1672	    0.8049
C	   -1.7574	   -1.3262	    2.0817
H	   -1.2867	   -1.6336	    3.0232
C	   -2.4057	   -0.0517	    1.8205
H	   -2.5151	    0.7692	    2.5395
C	   -3.1192	   -0.1522	    0.5623
C	   -2.7702	   -1.4212	   -0.0350
C	   -3.2844	   -1.7818	   -1.3116
H	   -3.0383	   -2.7548	   -1.7615
C	   -4.1436	   -0.8910	   -1.9423
H	   -4.5744	   -1.1532	   -2.9200
C	   -4.4989	    0.3541	   -1.3432
H	   -5.1927	    1.0203	   -1.8767
C	   -3.9925	    0.7413	   -0.1102
H	   -4.2618	    1.7040	    0.3441
O	    0.5390	    1.2217	    2.8827
