43
AHETUE Mo total_charge=+1 EN=13 VN=6 MoL₁X₆ heatmap_gray_cell
C	    1.0569	    1.0364	   -0.0107
C	   -2.3158	    0.4896	   -0.0659
C	   -3.6062	    1.1689	   -0.1090
C	   -3.7098	    2.5847	   -0.0516
C	   -4.9548	    3.1818	   -0.1122
H	   -5.1081	    4.2690	   -0.0771
C	   -6.0217	    1.0483	   -0.2844
C	   -4.7986	    0.4041	   -0.2252
C	    2.4310	   -1.0324	   -0.0980
C	    2.3228	    0.4012	   -0.0488
C	    3.5464	    1.2040	   -0.0332
C	    4.8184	    0.5331	   -0.0765
C	    4.8567	   -0.8950	   -0.1319
H	    5.8391	   -1.3913	   -0.1655
C	    3.7069	   -1.6588	   -0.1413
C	    3.5547	    2.6218	    0.0165
C	    4.7501	    3.3397	    0.0256
H	    4.7185	    4.4386	    0.0649
C	    5.9955	    2.6746	   -0.0162
C	    6.0236	    1.2863	   -0.0672
H	    6.9821	    0.7467	   -0.1021
C	   -1.1868	   -0.7130	    2.9238
H	   -0.9393	   -0.9078	    3.9879
H	   -2.2881	   -0.7732	    2.7843
H	   -0.8511	    0.3099	    2.6701
N	   -0.1225	    0.4214	   -0.0643
N	   -1.2127	    1.2207	   -0.0177
N	   -6.0753	    2.4084	   -0.2266
O	   -2.3076	   -0.8276	   -0.0804
O	    1.3810	   -1.8284	   -0.0816
O	   -0.5813	   -1.7580	   -2.0907
O	   -1.0651	   -3.3422	    0.1073
O	   -0.4896	   -1.6137	    2.0634
Mo	   -0.5431	   -1.7932	   -0.3951
H	    1.0026	    2.1358	    0.0601
H	   -6.9902	    2.8692	   -0.2744
H	   -2.7997	    3.1933	    0.0335
H	   -6.9801	    0.5196	   -0.3805
H	   -4.7389	   -0.6916	   -0.2763
H	    3.7352	   -2.7562	   -0.1795
H	    2.6133	    3.1870	    0.0468
H	    6.9315	    3.2515	   -0.0094
H	   -0.7577	   -2.5333	    2.2658
