34
AHETIS Mo total_charge=+1 EN=13 VN=6 MoL₁X₆ heatmap_gray_cell
Mo	    0.5390	   -1.3712	   -0.2411
O	    0.3347	   -1.1461	    2.2146
N	   -1.0064	    1.3333	    0.1067
O	    0.4002	   -3.0177	    0.1893
O	   -1.4463	   -0.9473	   -0.0211
O	    2.3515	   -0.8791	    0.2883
O	    0.6543	   -1.2801	   -1.9305
N	    0.2735	    0.8929	    0.0598
C	    1.2238	    1.8103	    0.0609
H	    0.9006	    2.8684	    0.0797
C	   -1.8342	    0.3048	    0.0349
C	    3.5386	    2.6057	   -0.0991
H	    3.1355	    3.6283	   -0.1585
C	   -5.1534	    2.1003	    0.0789
H	   -5.6200	    3.0920	    0.1556
C	   -3.2752	    0.5753	    0.0080
N	   -5.9949	    1.0360	   -0.0629
C	   -3.7854	    1.8939	    0.1168
H	   -3.0915	    2.7380	    0.2269
C	    2.6217	    1.5193	    0.0193
C	    4.9088	    2.3863	   -0.1542
H	    5.6037	    3.2315	   -0.2558
C	   -4.1866	   -0.5019	   -0.1357
H	   -3.8065	   -1.5289	   -0.2227
C	    3.1434	    0.1797	    0.1068
C	    5.4032	    1.0634	   -0.0805
H	    6.4881	    0.8835	   -0.1247
C	    4.5373	   -0.0251	    0.0520
H	    4.9128	   -1.0558	    0.1182
C	   -5.5474	   -0.2442	   -0.1704
H	   -6.3100	   -1.0274	   -0.2833
H	    1.2518	   -1.0690	    2.5471
H	    0.0773	   -2.0594	    2.4584
H	   -7.0061	    1.2086	   -0.0908
