40
AHETOY Mo total_charge=+1 EN=13 VN=6 MoL₁X₆ heatmap_gray_cell
O	   -1.1449	   -3.3571	    0.1175
O	   -0.3698	   -1.7283	   -1.9651
O	    1.3154	   -1.8253	    0.2929
C	   -3.7905	    2.5245	    0.1799
H	   -2.8905	    3.1358	    0.3286
C	    2.2634	    0.3975	    0.0970
O	   -0.7367	   -1.5990	    2.1886
O	   -2.3402	   -0.8561	   -0.0705
N	   -1.2765	    1.1978	    0.1610
N	   -6.1501	    2.3300	   -0.0438
H	   -7.0712	    2.7804	   -0.0676
N	   -0.1772	    0.4161	    0.0938
C	   -2.3656	    0.4562	    0.0392
C	    3.4913	    2.6136	   -0.0622
H	    2.5489	    3.1779	   -0.0708
C	    3.6447	   -1.6631	    0.1408
H	    3.6735	   -2.7602	    0.1919
C	    0.9959	    1.0374	    0.1446
H	    0.9418	    2.1367	    0.2183
C	    2.3719	   -1.0329	    0.1601
C	    4.7957	   -0.9031	    0.0622
H	    5.7770	   -1.4025	    0.0449
C	    3.4853	    1.1968	    0.0171
C	   -5.0435	    3.1077	    0.1457
H	   -5.2135	    4.1867	    0.2625
C	   -6.0764	    0.9795	   -0.2034
H	   -7.0258	    0.4466	   -0.3515
C	   -3.6665	    1.1192	    0.0173
C	    4.6852	    3.3289	   -0.1401
H	    4.6528	    4.4270	   -0.1984
C	   -4.8446	    0.3491	   -0.1749
H	   -4.7684	   -0.7391	   -0.3034
C	    4.7574	    0.5237	    0.0014
C	    5.9615	    1.2754	   -0.0815
H	    6.9201	    0.7349	   -0.0930
C	    5.9312	    2.6623	   -0.1494
H	    6.8657	    3.2380	   -0.2134
Mo	   -0.5591	   -1.8018	   -0.2814
H	   -1.2287	   -2.4237	    2.3834
H	    0.1586	   -1.7772	    2.5405
