48
AHEVAM Mo total_charge=+1 EN=13 VN=6 MoL₁X₆ heatmap_gray_cell
Mo	    0.8224	   -1.4232	   -0.1768
O	    1.0774	   -3.0639	    0.2382
N	    2.2278	    1.3435	    0.1416
O	   -0.9769	   -1.0520	    0.4982
O	    0.5502	   -1.3429	   -1.8506
N	    0.9846	    0.8326	    0.1603
O	    2.7761	   -0.9016	   -0.0972
O	    1.1788	   -1.2324	    2.2826
N	    7.2174	    1.3248	   -0.3187
H	    8.2139	    1.5512	   -0.3950
C	    3.1148	    0.3715	   -0.0181
C	   -3.2036	   -0.3344	    0.3875
H	   -3.4711	   -1.3952	    0.4444
N	   -5.5251	    0.3896	    0.3398
C	   -2.3924	    2.3475	    0.2684
H	   -2.0685	    3.3983	    0.2181
C	    4.5239	    0.7163	   -0.1152
C	   -0.0244	    1.6989	    0.2521
H	    0.2437	    2.7718	    0.2714
C	   -3.7387	    2.0580	    0.2751
H	   -4.4574	    2.8833	    0.2261
C	   -1.3869	    1.3306	    0.2982
C	   -1.8411	   -0.0402	    0.3799
C	   -4.1949	    0.6906	    0.3288
C	    5.4887	   -0.3071	   -0.3323
H	    5.1605	   -1.3512	   -0.4232
C	   -6.5500	    1.4388	    0.2588
H	   -6.2472	    2.2831	    0.9100
H	   -7.4696	    1.0228	    0.7152
C	    6.3245	    2.3395	   -0.1085
H	    6.7408	    3.3531	   -0.0333
C	    6.8272	    0.0229	   -0.4315
H	    7.6214	   -0.7169	   -0.6015
C	    4.9764	    2.0602	   -0.0036
H	    4.2481	    2.8649	    0.1631
C	   -6.8420	    1.9283	   -1.1618
H	   -5.9328	    2.3367	   -1.6460
H	   -7.6061	    2.7302	   -1.1345
H	   -7.2305	    1.1124	   -1.8014
C	   -5.9863	   -1.0052	    0.3123
H	   -7.0251	   -1.0063	    0.6955
H	   -5.3925	   -1.5890	    1.0453
C	   -5.9326	   -1.6620	   -1.0695
H	   -6.5901	   -1.1412	   -1.7920
H	   -6.2723	   -2.7141	   -0.9982
H	   -4.9046	   -1.6626	   -1.4824
H	    0.2699	   -1.2204	    2.6446
H	    1.4766	   -2.1519	    2.4443
