54
ATIWUW Mo total_charge=+1 EN=18 VN=3 MoL₅X₃ heatmap_gray_cell
Mo	   -0.0712	    0.7980	   -0.5276
C	    2.5853	   -1.3820	    0.1955
C	   -0.7028	   -0.1246	    1.5799
C	    2.8151	   -2.7068	   -0.2370
H	    1.9680	   -3.3958	   -0.3705
C	    0.0102	   -1.4661	   -0.1842
H	    0.0131	   -2.2056	   -0.9926
C	   -1.1637	   -0.9789	    0.4780
C	    1.2020	   -0.9347	    0.4598
C	   -2.5357	   -1.4443	    0.1859
C	   -1.4002	    0.6491	    2.5606
H	   -2.4954	    0.7290	    2.5316
C	    1.4620	    0.4473	    2.6734
H	    2.5535	    0.3452	    2.7349
C	   -0.4196	    2.2307	   -2.2942
H	    0.3036	    2.3677	   -3.1080
C	    0.7502	    1.1412	    3.6379
H	    1.2835	    1.6002	    4.4835
C	   -3.5015	   -1.5504	    1.2112
H	   -3.2382	   -1.2908	    2.2458
C	   -2.2063	    1.4684	   -1.0462
H	   -3.0935	    0.9093	   -0.7258
C	    3.6931	   -0.5235	    0.3803
H	    3.5327	    0.5223	    0.6786
C	   -0.6707	    1.2698	    3.5623
H	   -1.1967	    1.8524	    4.3330
C	   -0.4615	    3.0174	   -1.0947
C	   -5.1261	   -2.4339	   -0.3712
H	   -6.1344	   -2.8161	   -0.5881
C	   -2.8857	   -1.8607	   -1.1207
H	   -2.1449	   -1.7899	   -1.9319
C	    4.1197	   -3.1634	   -0.4686
H	    4.2830	   -4.2004	   -0.7971
C	    5.2124	   -2.3041	   -0.2777
H	    6.2358	   -2.6629	   -0.4619
C	    1.2923	    2.4746	    0.2311
H	    1.0986	    2.5332	    1.3163
H	    2.3549	    2.2589	    0.0259
C	   -4.1682	   -2.3478	   -1.3962
H	   -4.4243	   -2.6643	   -2.4182
C	    4.9948	   -0.9825	    0.1452
H	    5.8468	   -0.3008	    0.2849
C	    0.7445	    3.7039	   -0.5110
H	    0.4828	    4.5565	    0.1441
H	    1.4153	    4.0709	   -1.3104
C	   -4.7859	   -2.0407	    0.9315
H	   -5.5225	   -2.1264	    1.7439
C	   -1.4915	    1.2647	   -2.2689
H	   -1.7493	    0.5648	   -3.0714
O	    2.0616	    0.0039	   -2.6849
C	    0.7468	   -0.1593	    1.6031
C	    1.2939	    0.3107	   -1.8699
C	   -1.5730	    2.5405	   -0.3249
H	   -1.8557	    2.9078	    0.6698
