44
ATIXAD Mo total_charge=+1 EN=18 VN=3 MoL₅X₃ heatmap_gray_cell
Mo	    0.9284	   -0.5309	   -0.2222
O	   -1.2605	   -2.6856	    0.4177
C	   -0.3647	    1.6048	   -0.2633
C	    2.0774	   -2.3589	    0.5613
H	    1.5955	   -3.1766	    1.1119
C	   -0.4649	   -1.8681	    0.2060
C	    0.7097	    0.6578	   -2.1205
H	    1.3899	    0.5272	   -2.9693
C	    2.9626	   -1.0826	   -1.1453
H	    3.3075	   -0.7524	   -2.1318
C	    2.2235	   -0.6522	    2.4990
H	    2.9922	   -0.0203	    2.9830
H	    1.9578	   -1.4715	    3.1929
C	    1.0060	    0.1223	    1.9689
H	    1.1984	    1.2087	    1.9303
H	    0.0620	   -0.0959	    2.4976
C	   -2.9101	    0.2038	    1.0767
H	   -2.1511	    0.4247	    1.8413
C	    0.8181	    1.6869	   -1.0960
C	   -2.5440	    0.1627	   -0.2883
C	   -1.1748	    0.4900	   -0.7327
C	    2.6640	   -1.1978	    1.1664
C	   -3.5218	   -0.1806	   -1.2479
H	   -3.2596	   -0.2029	   -2.3161
C	    2.2511	   -2.2926	   -0.8705
H	    1.9594	   -3.0640	   -1.5923
C	   -4.8366	   -0.4616	   -0.8524
H	   -5.5903	   -0.7180	   -1.6113
C	   -4.2234	   -0.0812	    1.4678
H	   -4.4933	   -0.0549	    2.5338
C	   -0.5208	   -0.0396	   -1.9234
H	   -0.9365	   -0.8135	   -2.5786
C	   -5.1911	   -0.4114	    0.5043
H	   -6.2229	   -0.6346	    0.8135
C	    3.2108	   -0.4070	    0.1030
H	    3.7010	    0.5670	    0.2281
C	    1.8017	    2.6907	   -0.8475
H	    2.6988	    2.7580	   -1.4806
C	    1.5690	    3.6030	    0.1696
H	    2.3030	    4.3986	    0.3655
C	   -0.5938	    2.5835	    0.7434
H	   -1.5244	    2.5734	    1.3259
C	    0.3686	    3.5605	    0.9450
H	    0.2016	    4.3365	    1.7066
