70
BABMUO Mo total_charge=-1 EN=18 VN=3 MoL₄X₃ heatmap_gray_cell
Mo	   -0.2902	    0.0978	   -1.2303
S	   -2.0758	    1.3036	   -0.1114
S	   -1.9880	   -1.7487	   -1.0475
S	    1.2941	   -1.6335	   -1.6960
S	    0.3723	   -0.6260	    1.2261
Si	    1.7122	    2.8008	   -0.1383
O	   -0.4241	    0.1877	   -2.9358
O	    0.6311	    1.7087	   -0.8478
O	   -5.5891	    0.0554	    1.2390
O	   -4.5216	    2.0562	    1.1722
O	   -4.5030	   -2.9640	    0.7793
O	   -5.5165	   -1.8272	   -0.9088
O	    3.5793	   -3.8583	    0.6355
O	    3.2377	   -3.7369	   -1.6033
O	    1.7746	   -3.0859	    3.0773
O	    3.4110	   -1.6172	    2.4907
C	   -3.4360	    0.2200	    0.1680
C	   -3.3734	   -1.0900	   -0.2625
C	   -4.6155	    0.7196	    0.8937
C	   -5.6178	    2.5931	    1.9006
C	   -4.5055	   -2.0592	   -0.0309
C	   -6.7014	   -2.5788	   -0.6574
C	    1.9681	   -2.2953	   -0.2254
C	    1.5881	   -1.8029	    1.0204
C	    2.9885	   -3.3549	   -0.3163
C	    4.2145	   -4.7615	   -1.7450
C	    2.2419	   -2.2890	    2.2911
C	    4.1666	   -2.0612	    3.6157
C	    2.3865	    3.8044	   -1.6257
C	    2.6990	    2.9159	   -2.8401
C	    3.5688	    4.7105	   -1.2515
C	    3.0186	    1.7903	    0.8193
C	    3.8544	    0.8714	   -0.0860
C	    3.8999	    2.6233	    1.7621
C	    0.7628	    3.9540	    1.0547
C	   -0.3658	    4.7219	    0.3476
C	    0.2284	    3.1945	    2.2810
H	   -6.5691	    2.4878	    1.3371
H	   -5.3866	    3.6623	    2.0625
H	   -5.7473	    2.0765	    2.8751
H	   -6.4870	   -3.6656	   -0.5963
H	   -7.3898	   -2.3652	   -1.4960
H	   -7.1554	   -2.2542	    0.3023
H	    5.1957	   -4.4433	   -1.3340
H	    4.2995	   -4.9576	   -2.8298
H	    3.9100	   -5.6858	   -1.2104
H	    3.5582	   -2.0421	    4.5430
H	    5.0274	   -1.3727	    3.7019
H	    4.5205	   -3.0999	    3.4486
H	    1.5278	    4.4579	   -1.9053
H	    3.5601	    2.2447	   -2.6428
H	    2.9591	    3.5313	   -3.7301
H	    1.8378	    2.2711	   -3.1053
H	    3.3449	    5.3653	   -0.3830
H	    3.8581	    5.3716	   -2.0988
H	    4.4668	    4.1119	   -0.9896
H	    2.3842	    1.1257	    1.4492
H	    3.2188	    0.3015	   -0.7931
H	    4.4096	    0.1266	    0.5230
H	    4.5953	    1.4471	   -0.6819
H	    4.5700	    3.3136	    1.2071
H	    4.5515	    1.9596	    2.3731
H	    3.3040	    3.2380	    2.4680
H	    1.5269	    4.6920	    1.4002
H	    0.0039	    5.3332	   -0.5015
H	   -0.8820	    5.4105	    1.0528
H	   -1.1314	    4.0222	   -0.0474
H	   -0.5287	    2.4422	    1.9776
H	   -0.2622	    3.8906	    2.9970
H	    1.0260	    2.6548	    2.8305
