36
BAGDUJ Mo total_charge=+1 EN=18 VN=3 MoL₅X₃ heatmap_gray_cell
Mo	   -0.0000	   -0.7548	   -0.3685
Br	   -0.0016	   -0.1767	    2.1508
C	   -0.0015	   -2.5995	    0.3244
O	   -0.0022	   -3.6938	    0.6974
C	    1.7367	   -1.5704	   -1.5676
H	    1.7060	   -2.5495	   -2.0604
C	    2.2081	   -1.3026	   -0.2212
H	    2.6004	   -2.0495	    0.4795
C	    2.3255	    0.1321	   -0.0555
C	    2.8106	    0.9282	    1.0139
H	    3.2287	    0.4570	    1.9134
C	    2.7453	    2.3087	    0.8820
H	    3.1272	    2.9487	    1.6909
C	    2.1964	    2.9230	   -0.2814
H	    2.1730	    4.0211	   -0.3425
C	    1.7133	    2.1673	   -1.3436
H	    1.3209	    2.6462	   -2.2517
C	    1.7829	    0.7532	   -1.2422
C	    1.4026	   -0.3141	   -2.1566
H	    1.0850	   -0.1653	   -3.1931
C	   -1.7355	   -1.5679	   -1.5711
H	   -1.7047	   -2.5466	   -2.0646
C	   -2.2089	   -1.3009	   -0.2252
H	   -2.6032	   -2.0481	    0.4740
C	   -2.3254	    0.1337	   -0.0585
C	   -2.8119	    0.9293	    1.0107
H	   -3.2320	    0.4575	    1.9090
C	   -2.7453	    2.3098	    0.8801
H	   -3.1282	    2.9494	    1.6888
C	   -2.1937	    2.9247	   -0.2818
H	   -2.1694	    4.0228	   -0.3419
C	   -1.7092	    2.1696	   -1.3437
H	   -1.3146	    2.6490	   -2.2506
C	   -1.7801	    0.7554	   -1.2436
C	   -1.3994	   -0.3114	   -2.1584
H	   -1.0799	   -0.1619	   -3.1943
