61
BENFEF Mo total_charge=+1 EN=18 VN=5 MoL₄X₅ heatmap_gray_cell
Mo	   -0.2280	   -0.2686	   -0.6305
P	   -2.2824	    0.1860	    0.4752
P	    1.5247	   -1.5385	    0.3630
O	   -2.7974	    1.6935	    0.1372
O	   -3.6119	   -0.6647	    0.0295
O	   -2.4308	    0.0124	    2.0995
O	    1.8307	   -1.4746	    1.9801
O	    1.4358	   -3.1629	    0.1961
O	    2.9534	   -1.2423	   -0.3677
C	   -4.0895	    2.1611	    0.5885
C	   -3.7618	   -2.0442	    0.3858
C	   -1.3596	    0.1665	    3.0325
C	    2.3381	   -0.2873	    2.6021
C	    0.5700	   -3.9768	    0.9979
C	    4.1243	   -2.0457	   -0.0930
C	    0.3219	    1.2217	    0.2277
C	    0.6655	    2.5350	    0.7768
C	    1.7890	    3.3354	    0.0375
C	    1.3703	    3.5997	   -1.4176
C	    3.1044	    2.5390	    0.0727
C	    1.9637	    4.6722	    0.7779
C	   -0.9418	   -1.6385	   -2.5123
C	   -1.6076	   -0.3731	   -2.5721
C	   -0.6176	    0.6504	   -2.7550
C	    0.6642	    0.0169	   -2.7821
C	    0.4606	   -1.3981	   -2.6268
H	   -4.1090	    3.2489	    0.3964
H	   -4.2180	    1.9673	    1.6720
H	   -4.8992	    1.6610	    0.0230
H	   -4.7367	   -2.3730	   -0.0186
H	   -3.7557	   -2.1694	    1.4874
H	   -2.9549	   -2.6640	   -0.0623
H	   -1.7788	   -0.0640	    4.0295
H	   -0.9733	    1.2067	    3.0365
H	   -0.5339	   -0.5389	    2.8074
H	    2.7295	   -0.5901	    3.5910
H	    1.5322	    0.4606	    2.7410
H	    3.1546	    0.1652	    2.0042
H	    0.6623	   -5.0095	    0.6147
H	   -0.4871	   -3.6459	    0.9066
H	    0.8770	   -3.9437	    2.0623
H	    4.9930	   -1.4621	   -0.4476
H	    4.0637	   -3.0067	   -0.6393
H	    4.2245	   -2.2469	    0.9923
H	    1.2785	    2.6535	   -1.9844
H	    2.1256	    4.2288	   -1.9293
H	    0.3972	    4.1299	   -1.4697
H	    2.9905	    1.5386	   -0.3936
H	    3.4572	    2.3962	    1.1153
H	    3.9012	    3.0838	   -0.4720
H	    2.7586	    5.2787	    0.2994
H	    2.2522	    4.5147	    1.8376
H	    1.0288	    5.2688	    0.7628
H	   -1.4214	   -2.6174	   -2.3925
H	   -2.6924	   -0.2181	   -2.5249
H	   -0.8170	    1.7225	   -2.8645
H	    1.6337	    0.5092	   -2.9211
H	    1.2460	   -2.1633	   -2.6342
H	   -0.6712	   -1.4089	    0.6188
H	   -0.2748	    3.1350	    0.7731
H	    0.9542	    2.4250	    1.8475
