32
BOFTOH Mo total_charge=-1 EN=16 VN=5 MoL₂X₅ heatmap_gray_cell
Mo	    0.1298	   -1.2648	    0.1417
O	    3.2403	    1.2426	   -1.1281
H	    2.5283	    0.9464	   -1.7554
O	    1.3681	   -2.3447	    0.5584
N	   -1.3013	    0.5949	   -0.1377
C	   -1.1760	   -1.3728	    1.8225
N	    1.1790	   -0.0215	   -2.7304
N	    1.1233	    0.4877	    0.7513
N	   -1.8615	   -1.4029	    2.7844
N	   -2.2649	   -2.9370	   -1.4215
C	   -2.5835	    0.5386	   -0.5420
H	   -2.9600	   -0.4673	   -0.7860
C	    1.4517	    2.9635	    0.9021
H	    2.3597	    2.9575	    0.2669
H	    1.7681	    3.0284	    1.9660
H	    0.8805	    3.8799	    0.6728
C	    0.6363	    1.7272	    0.6264
C	    0.6773	   -0.5712	   -1.8099
C	   -3.3875	    1.6751	   -0.6610
H	   -4.4274	    1.5763	   -1.0024
C	    3.4133	    0.2015	   -0.2006
H	    4.4775	    0.1878	    0.1328
H	    3.1957	   -0.7900	   -0.6553
C	   -0.7388	    1.8007	    0.1871
C	   -1.5044	    2.9930	    0.0860
H	   -1.0543	    3.9590	    0.3507
C	   -1.3975	   -2.3662	   -0.8577
C	   -2.8283	    2.9283	   -0.3381
H	   -3.4289	    3.8479	   -0.4162
C	    2.5458	    0.3388	    1.0766
H	    2.6753	   -0.5766	    1.6846
H	    2.8959	    1.2022	    1.6770
