33
BORBAL Mo total_charge=+1 EN=16 VN=1 MoL₅X₁ heatmap_gray_cell
Mo	    0.0888	    0.0000	   -0.1669
C	    2.0739	    1.1556	   -0.9132
C	    1.3111	    0.7244	   -2.0352
C	    1.3101	   -0.7207	   -2.0374
C	    2.0721	   -1.1565	   -0.9168
C	    2.5180	   -0.0019	   -0.1983
C	   -1.5920	   -0.0013	   -1.1920
O	   -2.5823	   -0.0021	   -1.7930
C	    0.9285	    2.1480	    2.2431
C	    0.0603	    1.5461	    1.2067
C	   -1.0852	    1.6223	    0.5779
C	   -2.3581	    2.3595	    0.4476
C	    0.9314	   -2.1447	    2.2449
C	    0.0620	   -1.5450	    1.2081
C	   -1.0834	   -1.6231	    0.5795
C	   -2.3557	   -2.3615	    0.4495
H	    2.2658	    2.1988	   -0.6337
H	    0.8444	    1.3676	   -2.7916
H	    0.8424	   -1.3609	   -2.7958
H	    2.2621	   -2.2008	   -0.6402
H	    3.1303	   -0.0036	    0.7118
H	    1.3199	    1.3799	    2.9393
H	    0.3801	    2.9144	    2.8276
H	    1.8097	    2.6392	    1.7799
H	   -3.2316	    1.6831	    0.5451
H	   -2.4382	    2.8308	   -0.5540
H	   -2.4356	    3.1566	    1.2135
H	    1.3135	   -1.3760	    2.9457
H	    1.8185	   -2.6262	    1.7831
H	    0.3872	   -2.9178	    2.8244
H	   -3.2296	   -1.6861	    0.5510
H	   -2.4308	   -3.1607	    1.2134
H	   -2.4375	   -2.8299	   -0.5532
