27

Cu	   -0.5050	    0.1403	    0.0013
O	   -1.5442	    2.0303	    0.0003
N	   -2.3159	   -0.5866	    0.0006
N	    2.4712	   -0.0846	    0.0011
C	   -2.7769	    1.7649	   -0.0010
H	   -3.5164	    2.6051	   -0.0022
C	   -3.2675	    0.4284	   -0.0010
C	   -4.5735	   -0.1311	   -0.0020
H	   -5.5194	    0.4248	   -0.0032
C	   -4.3972	   -1.5244	   -0.0011
H	   -5.1792	   -2.2938	   -0.0015
C	   -2.9944	   -1.7525	    0.0005
H	   -2.4659	   -2.7159	    0.0015
C	    1.2879	   -0.0116	    0.0011
C	    3.9045	   -0.1656	   -0.0012
C	    4.3224	   -1.2745	   -0.9871
H	    5.4267	   -1.3569	   -1.0072
H	    3.9011	   -2.2517	   -0.6808
H	    3.9678	   -1.0438	   -2.0105
C	    4.4647	    1.2004	   -0.4451
H	    5.5716	    1.1635	   -0.4543
H	    4.1118	    1.4570	   -1.4628
H	    4.1435	    2.0005	    0.2497
C	    4.3655	   -0.5058	    1.4301
H	    5.4705	   -0.5739	    1.4569
H	    4.0430	    0.2777	    2.1429
H	    3.9440	   -1.4757	    1.7584
