75

Co	   -0.7472	    0.2876	    0.2676
N	    0.5148	   -0.7107	    0.4560
C	    4.2337	   -1.2476	    0.8117
H	    5.0020	   -0.7181	    1.4150
N	   -0.6597	    2.0855	   -0.0649
N	   -2.5276	    0.1757	   -0.1818
C	   -2.9175	    2.4557	   -0.8097
H	   -3.6441	    3.1903	   -1.1817
C	    1.7372	   -2.8262	    0.6366
H	    1.4545	   -2.9039	    1.7073
H	    0.9432	   -3.3364	    0.0518
C	    1.7664	   -1.3260	    0.2366
C	   -1.3066	    4.3920	   -0.6658
H	   -0.9262	    4.8185	    0.2852
H	   -2.2060	    4.9575	   -0.9707
H	   -0.5112	    4.5649	   -1.4192
C	   -3.3526	    1.1235	   -0.6753
C	    0.6792	    2.5576	    0.0969
C	    1.5281	    2.6236	   -1.0388
C	    3.1154	   -3.4655	    0.3834
H	    3.0799	   -4.5364	    0.6775
C	    4.5828	   -1.1330	   -0.6848
H	    4.6301	   -0.0630	   -0.9811
H	    5.5851	   -1.5718	   -0.8796
C	   -2.7902	   -2.1307	   -0.9906
C	   -2.9970	   -1.1567	    0.0203
C	   -1.6221	    2.9224	   -0.5087
C	    2.1401	   -1.2183	   -1.2724
H	    1.3503	   -1.7170	   -1.8730
H	    2.1521	   -0.1477	   -1.5560
C	    1.1500	    2.8876	    1.3928
C	    2.8630	   -0.5948	    1.0656
H	    2.5901	   -0.6503	    2.1402
H	    2.8712	    0.4772	    0.7827
C	   -3.6206	   -1.4884	    1.2510
C	    2.8641	    3.0230	   -0.8500
H	    3.5361	    3.0641	   -1.7219
C	   -3.2361	   -3.4429	   -0.7533
H	   -3.0769	   -4.2081	   -1.5294
C	    3.4676	   -3.3513	   -1.1128
H	    4.4497	   -3.8317	   -1.3119
H	    2.7128	   -3.8907	   -1.7247
C	   -4.0525	   -2.8130	    1.4443
H	   -4.5335	   -3.0829	    2.3977
C	    4.1844	   -2.7333	    1.2190
H	    5.1784	   -3.2052	    1.0627
H	    3.9498	   -2.8239	    2.3014
C	    1.0080	    2.2287	   -2.3958
H	    1.8330	    2.1085	   -3.1238
H	    0.3010	    2.9802	   -2.8078
H	    0.4401	    1.2775	   -2.3290
C	   -4.7600	    0.7488	   -1.0742
H	   -4.7546	   -0.0395	   -1.8551
H	   -5.3105	    1.6255	   -1.4615
H	   -5.3244	    0.3259	   -0.2177
C	   -2.0582	   -1.7589	   -2.2511
H	   -1.9258	   -2.6326	   -2.9170
H	   -1.0606	   -1.3438	   -1.9886
H	   -2.5807	   -0.9612	   -2.8197
C	    3.5143	   -1.8659	   -1.5193
H	    3.7600	   -1.7804	   -2.5999
C	   -3.7693	   -0.4431	    2.3244
H	   -4.1517	   -0.8827	    3.2651
H	   -4.4590	    0.3732	    2.0212
H	   -2.7913	    0.0437	    2.5247
C	    2.4904	    3.2893	    1.5336
H	    2.8681	    3.5405	    2.5372
C	   -3.8692	   -3.7847	    0.4504
H	   -4.2120	   -4.8168	    0.6191
C	    0.2354	    2.7426	    2.5775
H	   -0.1448	    1.6985	    2.6252
H	   -0.6620	    3.3906	    2.4920
H	    0.7539	    2.9847	    3.5245
C	    3.3454	    3.3586	    0.4240
H	    4.3937	    3.6673	    0.5536
