73

Pd	    0.0978	    0.5077	   -0.0254
P	    0.8692	   -1.6390	    0.0242
Cl	   -8.6074	    0.3626	   -0.0902
O	   -1.9005	    0.0442	   -0.0494
N	   -0.7774	    2.3239	   -0.0089
N	    1.8070	    1.6303	   -0.0240
N	   -2.1264	    2.3758	   -0.0217
C	   -2.6250	    1.1424	   -0.0396
C	   -0.4884	   -2.8568	   -0.1831
C	    0.0556	    3.3494	    0.0120
C	    1.6584	   -2.1180	    1.6120
C	    1.4311	    2.9669	    0.0051
C	   -0.2706	    4.8154	   -0.0104
C	    2.0829	   -2.0601	   -1.2872
C	   -4.0949	    0.9667	   -0.0541
C	   -4.9660	    2.0772	   -0.0041
C	   -1.5438	   -2.8347	    0.7544
C	    2.5168	    3.8465	   -0.0269
C	    3.1837	    1.6283	   -0.0863
C	   -0.5311	   -3.7607	   -1.2617
C	    2.0497	   -1.3066	   -2.4782
C	    2.2757	    5.3283	   -0.0235
C	   -6.3522	    1.8969	   -0.0146
C	    4.0995	    0.5553	   -0.1360
C	    0.8894	    5.6462	    0.5840
C	    3.0399	   -3.0827	   -1.1306
C	    3.6716	    3.0044	   -0.0892
C	    2.9621	   -1.5802	   -3.5069
C	   -2.6199	   -3.7208	    0.6184
C	    5.0631	    3.2548	   -0.1418
C	    1.6401	   -3.4522	    2.0713
C	   -2.6597	   -4.6243	   -0.4579
C	    2.3077	   -1.1234	    2.3722
C	    5.4660	    0.8435	   -0.1880
C	   -1.6168	   -4.6414	   -1.3960
C	   -6.8769	    0.5934	   -0.0771
C	    3.9160	   -2.5980	   -3.3485
C	    2.2854	   -3.7883	    3.2706
C	    2.9458	   -2.7986	    4.0173
C	    5.9495	    2.1779	   -0.1903
C	    3.9541	   -3.3473	   -2.1611
C	    2.9537	   -1.4684	    3.5685
C	   -6.0277	   -0.5246	   -0.1301
C	   -4.6417	   -0.3333	   -0.1182
H	   -4.5313	    3.0855	    0.0438
H	   -0.4553	    5.1123	   -1.0691
H	   -1.5273	   -2.1098	    1.5814
H	    1.1090	   -4.2249	    1.4946
H	   -1.2233	    4.9987	    0.5257
H	    0.6617	    6.7249	    0.4644
H	    0.9335	    5.4475	    1.6764
H	    2.3312	    5.7274	   -1.0641
H	    4.7064	   -4.1402	   -2.0324
H	    5.4367	    4.2908	   -0.1455
H	    2.2970	   -0.0788	    2.0253
H	    6.1841	    0.0101	   -0.2318
H	    1.3200	   -0.4873	   -2.5789
H	    7.0338	    2.3606	   -0.2330
H	    3.0659	    5.8643	    0.5437
H	    3.0827	   -3.6601	   -0.1950
H	    3.7497	   -0.4842	   -0.1456
H	   -3.9567	   -1.1922	   -0.1616
H	   -7.0354	    2.7569	    0.0253
H	    0.2853	   -3.7760	   -1.9990
H	    3.4491	   -3.0652	    4.9591
H	    2.2677	   -4.8296	    3.6266
H	    4.6409	   -2.8026	   -4.1510
H	   -3.4388	   -3.6995	    1.3535
H	    3.4612	   -0.6881	    4.1552
H	    2.9380	   -0.9830	   -4.4307
H	   -6.4594	   -1.5340	   -0.1822
H	   -3.5095	   -5.3155	   -0.5659
H	   -1.6448	   -5.3456	   -2.2413
