39

I	   -2.4149	   -0.0037	    0.0316
Fe	    0.2000	    0.0156	   -0.3865
O	   -0.3853	    2.1491	   -2.2832
O	   -0.3777	   -1.9664	   -2.4435
N	    2.2450	    0.0927	   -0.7078
N	    0.6766	   -1.4908	    1.0294
N	    0.6030	    1.3432	    1.2146
C	   -0.1742	    1.3048	   -1.5161
C	   -0.1627	   -1.1771	   -1.6206
C	    2.9151	   -0.9919	    0.0895
C	    1.9276	   -2.0793	    0.4700
C	    0.9208	   -0.8311	    2.3588
C	    0.2643	    0.5355	    2.4220
C	    2.0624	    1.6912	    1.1683
C	    2.6354	    1.4470	   -0.2154
C	    2.6184	   -0.0390	   -2.1412
C	   -0.3320	   -2.5702	    1.1931
C	   -0.2021	    2.5939	    1.2230
H	    3.3678	   -0.5435	    0.9935
H	    3.7557	   -1.4263	   -0.4881
H	    1.6414	   -2.6769	   -0.4173
H	    2.3925	   -2.7836	    1.1967
H	    0.5309	   -1.4702	    3.1763
H	    2.0120	   -0.7567	    2.5295
H	   -0.8387	    0.4325	    2.4345
H	    0.5684	    1.0718	    3.3496
H	    2.2154	    2.7500	    1.4586
H	    2.6027	    1.0918	    1.9250
H	    3.7436	    1.5555	   -0.2062
H	    2.2426	    2.1869	   -0.9395
H	    3.7127	    0.1050	   -2.2678
H	    2.0842	    0.7177	   -2.7435
H	    2.3429	   -1.0423	   -2.5126
H	    0.0572	   -3.3498	    1.8823
H	   -0.5594	   -3.0304	    0.2147
H	   -1.2694	   -2.1472	    1.5953
H	   -0.0083	    3.1655	    2.1554
H	   -1.2765	    2.3418	    1.1566
H	    0.0680	    3.2206	    0.3539
