83

I	    0.2041	   -0.5001	    2.4004
Rh	   -0.0758	    0.2227	   -0.2216
P	    2.2428	    0.3576	   -0.4910
P	   -2.3092	   -0.3861	   -0.4376
C	    2.5421	   -0.1906	   -2.2811
C	   -1.3305	   -4.5548	   -2.0111
C	    2.8520	    2.5946	    1.0132
C	   -0.3588	   -3.4119	   -2.1867
C	    3.1080	    1.9412	   -0.2123
C	   -3.0919	   -1.2715	    0.9608
C	    3.2813	   -0.8955	    0.3711
C	   -3.3393	    2.0592	   -1.4491
C	   -0.2568	    0.3858	   -2.3223
C	   -3.9797	   -0.6009	    1.8265
C	    1.5724	   -1.3333	   -2.4641
C	   -0.7813	   -2.0621	   -2.1381
C	   -0.4131	    2.1712	    0.1108
C	    4.6256	   -0.6270	    0.6943
C	   -5.6647	    2.3935	   -2.0910
C	   -2.2125	   -1.6642	   -1.8423
C	    2.7483	   -2.1786	    0.6146
C	    1.0017	   -3.6870	   -2.4247
C	   -4.0914	   -2.5685	    3.2541
C	    5.4317	   -1.6351	    1.2466
C	   -1.0084	    4.9120	    0.5772
C	    0.1740	   -1.0163	   -2.3631
C	    1.9842	   -2.6808	   -2.5295
C	   -1.5500	    3.9132	    1.4028
C	   -2.6814	   -2.5837	    1.2738
C	   -3.6353	    0.7440	   -1.0393
C	    3.5625	   -3.1851	    1.1523
C	   -0.1641	    4.5377	   -0.4783
C	    4.9035	   -2.9162	    1.4708
C	    3.4375	   -3.0602	   -2.6820
C	    0.1326	    3.1823	   -0.7094
C	   -3.1893	   -3.2318	    2.4074
C	   -4.4774	   -1.2504	    2.9658
C	   -4.3542	    2.8781	   -1.9699
C	    3.9426	    2.5489	   -1.1704
C	   -4.9561	    0.2580	   -1.1689
C	   -1.2600	    2.5578	    1.1752
C	    4.5191	    3.8017	   -0.9038
C	   -5.9638	    1.0798	   -1.6918
C	    4.2670	    4.4465	    0.3170
C	    3.4372	    3.8395	    1.2752
H	    2.3310	    0.6697	   -2.9483
H	    3.5993	   -0.4826	   -2.4102
H	   -1.8191	   -4.5402	   -1.0139
H	   -2.1458	   -4.5252	   -2.7637
H	   -0.8167	   -5.5297	   -2.1119
H	    2.1766	    2.1246	    1.7469
H	   -2.3166	    2.4477	   -1.3502
H	    0.4311	    1.1236	   -2.7655
H	   -1.2797	    0.5867	   -2.6867
H	   -4.2835	    0.4338	    1.6083
H	    5.0434	    0.3760	    0.5190
H	   -6.4582	    3.0398	   -2.4964
H	   -2.6925	   -1.1765	   -2.7171
H	   -2.8467	   -2.5268	   -1.5701
H	    1.6930	   -2.3854	    0.3892
H	    1.3212	   -4.7396	   -2.4868
H	   -4.4837	   -3.0756	    4.1485
H	    6.4788	   -1.4149	    1.5050
H	   -1.2403	    5.9727	    0.7579
H	   -2.2107	    4.1862	    2.2411
H	   -1.9388	   -3.0942	    0.6425
H	    3.1385	   -4.1838	    1.3362
H	    0.2764	    5.3036	   -1.1364
H	    5.5369	   -3.7055	    1.9036
H	    3.5478	   -4.1527	   -2.8196
H	    3.9029	   -2.5605	   -3.5566
H	    4.0301	   -2.7783	   -1.7866
H	    0.7994	    2.9286	   -1.5455
H	   -2.8633	   -4.2568	    2.6401
H	   -5.1714	   -0.7189	    3.6345
H	   -4.1113	    3.9066	   -2.2766
H	    4.1483	    2.0491	   -2.1290
H	   -5.1986	   -0.7671	   -0.8487
H	   -1.6912	    1.7927	    1.8371
H	    5.1693	    4.2750	   -1.6553
H	   -6.9898	    0.6925	   -1.7862
H	    4.7165	    5.4301	    0.5216
H	    3.2296	    4.3474	    2.2289
