33

Re	    0.8283	    0.2942	    0.0496
O	   -0.1242	    2.6951	    1.8321
O	    3.5199	   -0.1795	    1.6458
O	   -1.4807	    0.6637	   -2.0782
O	    2.5465	    2.0778	   -1.9016
O	    1.9085	   -2.6028	   -0.6153
N	   -1.5124	   -1.4502	    1.3037
C	    0.2399	    1.8115	    1.1625
C	    2.5113	   -0.0097	    1.0982
C	   -0.6859	    0.5023	   -1.2447
C	    1.9096	    1.4312	   -1.1725
C	   -0.2047	   -1.1859	    1.2504
C	    0.6093	   -2.1605	    2.0374
C	   -2.5930	   -0.7621	    0.6663
C	   -3.3681	   -1.4474	   -0.2847
C	   -4.4329	   -0.7885	   -0.9148
C	   -4.7236	    0.5467	   -0.5937
C	   -3.9579	    1.2188	    0.3724
C	   -2.8958	    0.5663	    1.0125
C	    1.5090	   -1.5675	   -1.1343
C	    1.4938	   -1.4790	   -2.6536
H	   -1.7979	   -2.2878	    1.8332
H	    1.2288	   -1.6353	    2.7907
H	    0.0109	   -2.9499	    2.5463
H	    1.3229	   -2.6281	    1.3123
H	   -3.1150	   -2.4861	   -0.5452
H	   -5.0310	   -1.3188	   -1.6706
H	   -5.5531	    1.0652	   -1.0970
H	   -4.1889	    2.2620	    0.6343
H	   -2.2960	    1.0811	    1.7746
H	    1.8421	   -2.4286	   -3.1085
H	    2.1435	   -0.6412	   -2.9808
H	    0.4703	   -1.2363	   -3.0063
