56

V	    0.3924	   -0.0374	   -1.2086
N	   -0.1603	    1.1465	    0.8754
C	   -0.3700	    2.4367	    0.5063
C	   -0.0985	    2.7464	   -0.8734
C	   -0.3965	    0.7876	    2.1309
H	   -0.2187	   -0.2715	    2.3822
C	   -0.8321	    3.4479	    1.4108
C	   -0.2946	    4.0597	   -1.3189
H	   -0.0902	    4.2958	   -2.3728
C	   -0.8633	    1.7053	    3.1089
H	   -1.0494	    1.3581	    4.1355
C	   -0.7496	    5.0552	   -0.4182
H	   -0.8969	    6.0793	   -0.7939
C	   -1.0171	    4.7722	    0.9182
H	   -1.3756	    5.5574	    1.6006
C	   -1.0777	    3.0296	    2.7498
H	   -1.4390	    3.7630	    3.4878
O	    0.3361	    1.7722	   -1.6628
O	    0.7718	   -0.7506	   -2.5602
O	    2.0732	   -0.1349	   -0.3502
C	    4.2786	   -0.8808	    0.0471
C	    2.8235	   -1.1569	   -0.0204
C	    4.7564	    0.3514	   -0.4567
H	    4.0303	    1.0576	   -0.8831
C	    6.1223	    0.6559	   -0.4198
H	    6.4778	    1.6174	   -0.8203
C	    6.5730	   -1.4888	    0.6276
H	    7.2829	   -2.2111	    1.0583
C	    7.0367	   -0.2625	    0.1206
H	    8.1108	   -0.0243	    0.1486
C	    2.2576	   -2.3928	    0.2912
H	    2.9144	   -3.2171	    0.5915
O	   -1.5286	   -0.1368	   -1.1706
C	   -3.5684	   -1.1134	   -0.3841
C	   -4.2994	   -0.1045	   -1.0576
H	   -3.7205	    0.6587	   -1.5969
C	   -2.1084	   -1.0731	   -0.4533
C	   -5.6923	   -0.0744	   -1.0441
H	   -6.2388	    0.7181	   -1.5749
C	   -6.3890	   -1.0788	   -0.3387
H	   -7.4900	   -1.0738	   -0.3167
N	   -1.3516	   -1.9607	    0.1902
C	    0.3458	   -3.8900	    1.0106
H	    1.1730	   -4.5918	    1.2200
H	   -0.4006	   -4.3764	    0.3504
H	   -0.1800	   -3.6647	    1.9622
C	   -4.2792	   -2.1369	    0.3387
C	   -5.7012	   -2.0846	    0.3363
H	   -6.2556	   -2.8636	    0.8835
N	   -0.0324	   -1.7239	   -0.0573
C	    0.8547	   -2.6216	    0.3806
N	   -3.6178	   -3.1227	    1.0028
H	   -2.5857	   -3.0935	    0.9774
H	   -4.1391	   -3.8397	    1.4998
C	    5.2082	   -1.7955	    0.5944
H	    4.8635	   -2.7524	    1.0116
