47

C	   -0.1002	   -2.7060	   -0.2174
H	   -1.0987	   -3.1577	   -0.2994
C	    1.0446	   -3.4830	   -0.1659
H	    0.9569	   -4.5784	   -0.2017
C	    3.5432	   -3.6066	   -0.0141
H	    3.5140	   -4.7058	   -0.0350
C	    4.7525	   -2.9249	    0.0653
H	    5.6962	   -3.4881	    0.1105
C	    4.7965	   -1.5119	    0.0837
H	    5.7792	   -1.0237	    0.1404
C	    4.7965	    1.5121	    0.0839
H	    5.7791	    1.0239	    0.1409
C	    4.7524	    2.9251	    0.0655
H	    5.6960	    3.4883	    0.1108
C	    3.5430	    3.6068	   -0.0142
H	    3.5138	    4.7059	   -0.0351
C	    1.0445	    3.4830	   -0.1663
H	    0.9567	    4.5784	   -0.2023
C	   -0.1003	    2.7059	   -0.2180
H	   -1.0988	    3.1576	   -0.3002
C	    1.1461	    0.7265	   -0.1028
C	    1.1461	   -0.7265	   -0.1026
C	    2.3772	   -1.4362	   -0.0473
C	    3.6296	   -0.7364	    0.0262
C	    3.6296	    0.7365	    0.0262
C	    2.3772	    1.4362	   -0.0475
C	    2.3288	    2.8727	   -0.0733
C	    2.3289	   -2.8727	   -0.0731
C	   -1.9791	    1.2227	    2.7566
H	   -1.7051	    1.2179	    3.8331
H	   -3.0803	    1.2756	    2.6712
H	   -1.5452	    2.1189	    2.2762
C	   -1.9780	   -1.2220	    2.7570
H	   -1.5434	   -2.1179	    2.2767
H	   -3.0791	   -1.2758	    2.6718
H	   -1.7037	   -1.2167	    3.8335
C	   -3.1647	    1.3742	   -0.1561
C	   -3.1648	   -1.3742	   -0.1553
C	   -1.9300	   -0.0006	   -2.1450
N	   -0.0606	   -1.3388	   -0.1782
N	   -0.0606	    1.3387	   -0.1786
N	   -1.4928	    0.0005	    2.0728
H	   -0.4645	    0.0010	    2.1649
O	   -3.9445	    2.2404	   -0.1144
O	   -3.9447	   -2.2403	   -0.1130
O	   -1.9877	   -0.0010	   -3.3064
Re	   -1.8024	   -0.0000	   -0.2119
