53
BALFAY charge=+1 mixed linear/bent nitrosyl Fe(NO)
C	   -0.7481	    1.8181	    0.4408
C	    0.7352	    1.8249	    0.4370
C	   -1.5315	    3.0698	    0.6651
H	   -2.6132	    2.8573	    0.7375
H	   -1.3670	    3.7824	   -0.1708
H	   -1.1962	    3.5839	    1.5884
C	    1.4985	    3.0899	    0.6583
H	    2.5885	    2.9181	    0.6118
H	    1.2463	    3.5251	    1.6479
H	    1.2201	    3.8534	   -0.0975
C	   -2.6868	    0.4317	    0.1446
C	   -3.3453	    0.6682	   -1.0900
C	   -4.7117	    0.3421	   -1.1691
H	   -5.2418	    0.5072	   -2.1196
C	   -5.3983	   -0.1815	   -0.0663
H	   -6.4649	   -0.4352	   -0.1537
C	   -4.7308	   -0.3738	    1.1499
H	   -5.2768	   -0.7643	    2.0222
C	   -3.3635	   -0.0724	    1.2855
C	   -2.6395	    1.2914	   -2.2684
H	   -3.0409	    0.9045	   -3.2243
H	   -1.5469	    1.1196	   -2.2597
H	   -2.7935	    2.3923	   -2.2797
C	   -2.6751	   -0.2035	    2.6207
H	   -2.8113	    0.7220	    3.2211
H	   -1.5842	   -0.3646	    2.5262
H	   -3.1025	   -1.0356	    3.2120
C	    2.6825	    0.4652	    0.1682
C	    3.3534	    0.0208	    1.3387
C	    4.7333	   -0.2311	    1.2418
H	    5.2751	   -0.5751	    2.1357
C	    5.4148	   -0.0561	    0.0303
H	    6.4934	   -0.2634	   -0.0265
C	    4.7276	    0.3797	   -1.1122
H	    5.2677	    0.5138	   -2.0617
C	    3.3492	    0.6521	   -1.0718
C	    2.5990	   -0.1546	    2.6271
H	    1.6993	   -0.7883	    2.4788
H	    2.2418	    0.8176	    3.0291
H	    3.2318	   -0.6241	    3.4023
C	    2.6023	    1.1206	   -2.2922
H	    3.2640	    1.1445	   -3.1773
H	    2.1895	    2.1430	   -2.1590
H	    1.7422	    0.4594	   -2.5261
Fe	   -0.0279	   -0.9175	   -0.1821
N	   -0.3041	   -1.1795	   -1.7870
N	   -0.8179	   -2.0921	    0.7154
N	    1.6929	   -1.9665	    0.0237
N	   -1.2762	    0.6438	    0.2259
N	    1.2718	    0.6518	    0.2298
O	   -0.6529	   -1.5178	   -2.8441
O	   -1.5673	   -2.9255	    1.0254
O	    1.9887	   -2.8505	   -0.6695
