51

I	   -0.9382	    3.3192	   -0.1634
Ag	   -0.2451	    0.8115	   -0.0193
N	   -0.6292	   -2.1739	    0.0144
C	    0.3156	   -1.2080	    0.0820
N	    1.6190	   -1.5344	    0.2306
C	   -0.4632	   -3.6252	   -0.2654
H	   -1.3979	   -3.9309	   -0.7743
H	   -0.4325	   -4.2070	    0.6828
C	    0.7342	   -3.9440	   -1.1610
H	    0.7402	   -3.2104	   -1.9935
H	    0.5715	   -4.9372	   -1.6266
C	    2.0825	   -3.9219	   -0.4242
H	    2.2841	   -4.9053	    0.0514
H	    2.9080	   -3.7500	   -1.1451
C	    2.1030	   -2.8587	    0.6715
H	    3.1271	   -2.7188	    1.0661
H	    1.4714	   -3.1770	    1.5280
C	   -2.0063	   -1.7323	    0.1044
C	   -2.5949	   -1.6142	    1.3839
C	   -3.9401	   -1.2069	    1.4544
H	   -4.4153	   -1.0999	    2.4416
C	   -4.6668	   -0.9249	    0.2907
H	   -5.7152	   -0.5993	    0.3641
C	   -4.0585	   -1.0405	   -0.9661
H	   -4.6245	   -0.7955	   -1.8779
C	   -2.7174	   -1.4481	   -1.0855
C	   -1.7864	   -1.8583	    2.6315
H	   -1.0200	   -1.0638	    2.7589
H	   -1.2435	   -2.8250	    2.5999
H	   -2.4301	   -1.8544	    3.5311
C	   -2.0373	   -1.5138	   -2.4273
H	   -1.6429	   -2.5260	   -2.6560
H	   -1.1739	   -0.8145	   -2.4578
H	   -2.7333	   -1.2310	   -3.2387
C	    2.5865	   -0.4599	    0.1646
C	    3.0043	    0.1545	    1.3695
C	    3.9564	    1.1868	    1.2874
H	    4.2823	    1.6867	    2.2124
C	    4.4685	    1.5959	    0.0495
H	    5.2067	    2.4104	    0.0030
C	    4.0274	    0.9847	   -1.1308
H	    4.4146	    1.3220	   -2.1044
C	    3.0771	   -0.0529	   -1.0977
C	    2.3946	   -0.2387	    2.6895
H	    2.6005	   -1.2957	    2.9578
H	    1.2903	   -0.1214	    2.6557
H	    2.7796	    0.3972	    3.5082
C	    2.5590	   -0.6682	   -2.3715
H	    1.4766	   -0.4517	   -2.4979
H	    2.6706	   -1.7713	   -2.3799
H	    3.0911	   -0.2628	   -3.2521
