40
BOYBUM charge=0 bent nitrosyl Co(NO)2(I)(PPh3)
Co	    0.9991	    0.1636	   -1.3932
I	    3.0952	   -0.0785	   -0.0588
N	    0.8573	    1.6831	   -2.2002
N	    0.8133	   -0.9950	   -2.6550
O	    0.7696	    2.7680	   -1.7480
O	    0.6545	   -2.1627	   -2.5680
P	   -0.6715	   -0.0234	    0.0441
C	   -0.9950	    1.5722	    0.8861
C	   -2.2821	    2.1417	    0.9528
C	   -2.4681	    3.3724	    1.6014
C	   -1.3767	    4.0376	    2.1814
C	   -0.0919	    3.4741	    2.1082
C	    0.1049	    2.2494	    1.4565
C	   -2.2797	   -0.5007	   -0.7064
C	   -2.5354	   -0.1248	   -2.0404
C	   -3.7679	   -0.4326	   -2.6338
C	   -4.7454	   -1.1284	   -1.9042
C	   -4.4887	   -1.5167	   -0.5792
C	   -3.2597	   -1.2055	    0.0217
C	   -0.4244	   -1.2427	    1.3893
C	    0.1245	   -2.4963	    1.0465
C	    0.3114	   -3.4703	    2.0356
C	   -0.0356	   -3.1972	    3.3695
C	   -0.5722	   -1.9470	    3.7134
C	   -0.7683	   -0.9676	    2.7268
H	   -3.1389	    1.6221	    0.4991
H	   -3.4750	    3.8138	    1.6520
H	   -1.5266	    5.0033	    2.6877
H	    0.7682	    3.9964	    2.5534
H	    1.1148	    1.8127	    1.3834
H	   -1.7540	    0.4001	   -2.6118
H	   -3.9615	   -0.1364	   -3.6758
H	   -5.7093	   -1.3775	   -2.3735
H	   -5.2498	   -2.0704	   -0.0087
H	   -3.0568	   -1.5144	    1.0584
H	    0.4128	   -2.7040	    0.0046
H	    0.7427	   -4.4456	    1.7646
H	    0.1204	   -3.9614	    4.1460
H	   -0.8383	   -1.7280	    4.7587
H	   -1.1830	    0.0151	    2.9970
