21
Ferrocene Fe(C5H5)2 - idealized D5d
Fe      0.000000      0.000000      0.000000
C       1.203000      0.000000     -1.655000
C       0.371747      1.144121     -1.655000
C      -0.973247      0.707106     -1.655000
C      -0.973247     -0.707106     -1.655000
C       0.371747     -1.144121     -1.655000
C       0.973247      0.707106      1.655000
C      -0.371747      1.144121      1.655000
C      -1.203000      0.000000      1.655000
C      -0.371747     -1.144121      1.655000
C       0.973247     -0.707106      1.655000
H       2.283000      0.000000     -1.655000
H       0.705486      2.171262     -1.655000
H      -1.846986      1.341914     -1.655000
H      -1.846986     -1.341914     -1.655000
H       0.705486     -2.171262     -1.655000
H       1.846986      1.341914      1.655000
H      -0.705486      2.171262      1.655000
H      -2.283000      0.000000      1.655000
H      -0.705486     -2.171262      1.655000
H       1.846986     -1.341914      1.655000
