61

Ni	    0.0010	    0.0009	   -0.0019
S	    0.4112	    1.6348	   -1.4510
S	    0.6461	   -1.2700	   -1.7210
C	    1.4533	    0.2745	   -1.8174
N	    2.7809	    0.3993	   -2.0034
C	    3.6519	   -0.7789	   -2.1138
H	    4.4138	   -0.5651	   -2.8909
H	    3.0197	   -1.6138	   -2.4803
C	    4.3290	   -1.1690	   -0.8125
C	    5.6995	   -1.4838	   -0.7981
H	    6.2822	   -1.4210	   -1.7315
C	    6.3325	   -1.8611	    0.3962
H	    7.4072	   -2.0991	    0.3941
C	    5.6000	   -1.9179	    1.5911
H	    6.0973	   -2.2000	    2.5314
C	    4.2305	   -1.6061	    1.5824
H	    3.6440	   -1.6423	    2.5128
C	    3.5955	   -1.2441	    0.3885
H	    2.5232	   -0.9982	    0.3939
C	    3.4548	    1.7095	   -1.8097
H	    4.3345	    1.7333	   -2.4806
H	    2.7409	    2.4874	   -2.1501
C	    3.9034	    1.9339	   -0.4019
C	    5.1844	    2.0165	    0.1467
H	    6.1215	    1.9717	   -0.4198
C	    5.0386	    2.1353	    1.5597
H	    5.8425	    2.2207	    2.2990
C	    3.6729	    2.1139	    1.8359
H	    3.1257	    2.1706	    2.7828
N	    3.0040	    2.0063	    0.6431
H	    1.9898	    1.9136	    0.5239
S	   -0.4098	   -1.6330	    1.4474
C	   -1.4519	   -0.2733	    1.8154
S	   -0.6455	    1.2714	    1.7170
N	   -2.7792	   -0.3985	    2.0036
C	   -3.6504	    0.7794	    2.1145
H	   -4.4114	    0.5657	    2.8925
H	   -3.0181	    1.6147	    2.4798
C	   -4.3291	    1.1686	    0.8138
C	   -5.6998	    1.4827	    0.8008
H	   -6.2814	    1.4200	    1.7349
C	   -6.3344	    1.8590	   -0.3930
H	   -7.4091	    2.0965	   -0.3898
C	   -5.6032	    1.9157	   -1.5887
H	   -6.1018	    2.1971	   -2.5286
C	   -4.2335	    1.6047	   -1.5815
H	   -3.6482	    1.6407	   -2.5126
C	   -3.5970	    1.2436	   -0.3881
H	   -2.5245	    0.9983	   -0.3947
C	   -3.4527	   -1.7092	    1.8114
H	   -4.3315	   -1.7330	    2.4834
H	   -2.7381	   -2.4865	    2.1513
C	   -3.9030	   -1.9344	    0.4042
C	   -5.1847	   -2.0172	   -0.1428
H	   -6.1211	   -1.9719	    0.4249
C	   -5.0407	   -2.1368	   -1.5559
H	   -5.8455	   -2.2226	   -2.2941
C	   -3.6753	   -2.1158	   -1.8337
H	   -3.1293	   -2.1731	   -2.7813
N	   -3.0049	   -2.0075	   -0.6418
H	   -1.9906	   -1.9153	   -0.5237
