58
syn-[Fe(O)(TMC)(NCCH3)] from trans.xyz by swapping axial O and NCCH3
Fe    2.378426    1.896463    4.085235
O     2.493550    1.882098    2.443280
N     3.992343    0.617954    4.280386
N     3.850182    3.404831    4.170209
N     0.774211    3.271450    3.960872
N     0.885670    0.466847    4.054523
C     4.940219    1.396785    5.128751
H     5.800983    0.913236    5.197612
H     4.567289    1.494790    6.040468
C     5.168184    2.747817    4.529662
H     5.724928    2.659186    3.715728
H     5.655537    3.318223    5.175576
C     3.488956    4.352913    5.284376
H     4.209756    5.024564    5.378027
H     3.441604    3.844082    6.132741
C     2.157268    5.083348    5.070908
H     2.072773    5.782100    5.766402
H     2.195172    5.542664    4.194999
C     0.903102    4.232008    5.102584
H     0.891319    3.719885    5.949572
H     0.114570    4.830110    5.103961
C    -0.499632    2.472784    4.135779
H    -1.131805    2.986154    4.699060
H    -0.922741    2.333850    3.250229
C    -0.234846    1.147449    4.770675
H    -1.049720    0.586738    4.727981
H     0.004982    1.274516    5.723708
C     1.198597   -0.777441    4.835404
H     0.476165   -1.435989    4.682533
H     1.197607   -0.553221    5.799455
C     2.512644   -1.424061    4.496609
H     2.597397   -1.496111    3.513277
H     2.532913   -2.340056    4.872589
C     3.677510   -0.639802    5.039232
H     3.486392   -0.400724    5.981248
H     4.479760   -1.220498    5.036478
C     4.660171    0.220550    3.013348
H     5.463678   -0.301983    3.217176
H     4.912286    1.024275    2.512041
H     4.045183   -0.320701    2.474856
C     4.127469    4.203058    2.934847
H     4.819714    4.868807    3.124902
H     3.306480    4.656571    2.648386
H     4.434924    3.605300    2.221449
C     0.587976    4.045243    2.699343
H    -0.195187    4.628530    2.786107
H     0.452109    3.425106    1.952892
H     1.384041    4.590180    2.529945
C     0.421226    0.029789    2.702097
H    -0.376787   -0.530639    2.797125
H     1.131738   -0.483544    2.262765
H     0.205983    0.818637    2.160851
N     2.234327    1.874873    6.137652
C     2.125450    1.897584    7.270367
C     1.999115    1.922015    8.703911
H     1.311900    1.281926    8.981710
H     1.743685    2.822856    8.993507
H     2.856377    1.679699    9.111099
