54

Mo	   -0.2035	   -0.1329	   -0.2176
N	    1.6939	    0.9000	   -0.1050
N	   -0.3794	    0.1645	   -1.9678
O	   -0.4401	    0.1265	   -3.1757
C	   -1.3796	    1.2249	    0.5445
C	   -2.2025	    2.4075	    0.0547
C	   -2.0265	    3.5636	    1.0673
H	   -2.3453	    3.2592	    2.0861
H	   -2.6304	    4.4473	    0.7703
H	   -0.9647	    3.8822	    1.1223
C	   -3.6897	    1.9841	    0.0224
H	   -3.8353	    1.1509	   -0.6946
H	   -4.3389	    2.8301	   -0.2906
H	   -4.0329	    1.6407	    1.0206
C	   -1.7807	    2.8967	   -1.3402
H	   -0.7043	    3.1628	   -1.3531
H	   -2.3659	    3.7939	   -1.6330
H	   -1.9347	    2.1162	   -2.1085
C	    2.6419	    0.6564	   -1.0512
H	    2.3109	    0.0624	   -1.9160
C	    3.9490	    1.1391	   -0.9503
H	    4.6676	    0.9123	   -1.7508
C	    4.3145	    1.9097	    0.1640
H	    5.3354	    2.3053	    0.2681
C	    3.3349	    2.1742	    1.1347
H	    3.5578	    2.7844	    2.0216
C	    2.0460	    1.6639	    0.9652
H	    1.2386	    1.8602	    1.6849
C	    0.3484	   -2.4731	   -0.3894
C	    0.9192	   -2.0112	    0.8397
C	   -0.1508	   -1.5867	    1.7167
C	   -1.3920	   -1.7802	    1.0153
C	   -1.0844	   -2.2915	   -0.3018
C	    1.0742	   -3.0291	   -1.5797
H	    2.1575	   -2.8003	   -1.5421
H	    0.6779	   -2.6154	   -2.5293
H	    0.9770	   -4.1354	   -1.6365
C	    2.3757	   -2.0248	    1.2002
H	    2.6382	   -2.9482	    1.7598
H	    2.6517	   -1.1658	    1.8440
H	    3.0244	   -1.9894	    0.3032
C	   -0.0047	   -1.1269	    3.1376
H	   -0.1156	   -1.9686	    3.8568
H	   -0.7706	   -0.3709	    3.4043
H	    0.9892	   -0.6726	    3.3221
C	   -2.7628	   -1.6214	    1.6016
H	   -3.5172	   -1.3991	    0.8233
H	   -2.8013	   -0.7986	    2.3414
H	   -3.0761	   -2.5518	    2.1240
C	   -2.0751	   -2.7136	   -1.3479
H	   -2.2657	   -3.8083	   -1.3031
H	   -1.7147	   -2.4764	   -2.3680
H	   -3.0455	   -2.1985	   -1.2150
H	   -1.6291	    1.0383	    1.6215
