46

Hf	   -0.9988	    0.0110	   -0.0066
N	    2.2640	   -0.4047	   -0.9968
N	    2.2573	    0.4177	    0.9889
C	   -0.3809	   -2.3729	    0.2355
H	    0.5716	   -2.8515	   -0.0431
C	   -1.3015	   -2.1918	   -0.8493
H	   -1.0523	   -2.6802	   -1.8017
C	   -2.6000	   -1.5676	   -0.7634
H	   -3.1811	   -1.5545	   -1.6972
C	   -3.2279	   -0.9680	    0.3708
H	   -4.1839	   -0.4684	    0.1458
C	   -2.6402	   -0.5753	    1.6110
H	   -3.2456	    0.0969	    2.2368
C	   -1.3475	   -0.9244	    2.1489
H	   -1.1289	   -0.5789	    3.1690
C	   -0.3982	   -1.8156	    1.5460
H	    0.5411	   -1.9405	    2.1079
C	   -0.1667	    2.2863	   -0.8951
H	    0.9059	    2.5080	   -0.9452
C	   -1.0228	    2.5578	    0.2128
H	   -0.7329	    3.0336	    1.1577
C	   -2.3402	    2.1311	   -0.1415
H	   -3.2369	    2.2215	    0.4815
C	   -2.2912	    1.5941	   -1.4676
H	   -3.1438	    1.2029	   -2.0336
C	   -0.9430	    1.6880	   -1.9324
H	   -0.5793	    1.3807	   -2.9206
C	    1.4113	    0.0093	   -0.0082
C	    1.8280	   -0.9291	   -2.2777
H	    2.1843	   -1.9692	   -2.4198
H	    2.2069	   -0.3022	   -3.1101
H	    0.7197	   -0.9315	   -2.2801
C	    1.8116	    0.9533	    2.2617
H	    0.7031	    0.9508	    2.2578
H	    2.1871	    1.9862	    2.4081
H	    2.1634	    0.3203	    3.1010
C	    3.6073	   -0.2696	   -0.6313
C	    3.6030	    0.2581	    0.6427
C	    4.7335	   -0.6637	   -1.5233
H	    5.7042	   -0.4790	   -1.0262
H	    4.7313	   -0.0922	   -2.4756
H	    4.6937	   -1.7411	   -1.7905
C	    4.7231	    0.6130	    1.5585
H	    5.6970	    0.3947	    1.0817
H	    4.6796	    0.0401	    2.5090
H	    4.7166	    1.6906	    1.8275
