33

Co	    0.0000	    0.0000	   -0.0000
Cl	   -0.4508	    2.2116	   -0.0001
N	   -1.3410	   -0.3655	   -1.4192
H	   -0.9929	    0.0053	   -2.3159
H	   -1.2985	   -1.3993	   -1.4985
C	   -2.7435	    0.0972	   -1.2710
H	   -3.3262	   -0.2270	   -2.1591
H	   -2.7183	    1.2049	   -1.2586
C	   -3.3887	   -0.4355	    0.0000
H	   -3.3869	   -1.5489	    0.0000
H	   -4.4557	   -0.1354	   -0.0000
C	   -2.7435	    0.0972	    1.2710
H	   -2.7183	    1.2050	    1.2586
H	   -3.3262	   -0.2269	    2.1591
N	   -1.3410	   -0.3654	    1.4192
H	   -1.2984	   -1.3992	    1.4987
H	   -0.9929	    0.0056	    2.3159
Cl	    0.4508	   -2.2116	    0.0001
N	    1.3410	    0.3655	    1.4192
H	    0.9929	   -0.0053	    2.3159
H	    1.2985	    1.3993	    1.4985
C	    2.7435	   -0.0972	    1.2710
H	    3.3262	    0.2270	    2.1591
H	    2.7183	   -1.2049	    1.2586
C	    3.3887	    0.4355	    0.0000
H	    3.3869	    1.5489	   -0.0000
H	    4.4557	    0.1354	    0.0000
C	    2.7435	   -0.0972	   -1.2709
H	    2.7183	   -1.2050	   -1.2586
H	    3.3262	    0.2269	   -2.1591
N	    1.3410	    0.3654	   -1.4192
H	    1.2984	    1.3992	   -1.4987
H	    0.9930	   -0.0056	   -2.3159
