33

Co	   -0.0128	    1.5587	    0.1854
N	    0.0812	    0.7500	    1.9869
N	   -0.1320	    2.0889	   -1.7180
N	   -1.3760	    2.9473	    0.6664
N	    1.5609	    2.7258	    0.6088
N	   -1.4785	    0.4158	   -0.1623
N	   -2.4399	    0.7345	   -1.0468
N	   -3.3424	   -0.2253	   -1.0136
N	   -3.6030	   -2.3227	    0.3019
N	   -1.7309	   -0.7156	    0.4712
N	    1.2500	    0.2535	   -0.3444
N	    1.3713	   -0.2304	   -1.5850
N	    2.3875	   -1.0711	   -1.5859
N	    4.0062	   -1.8490	    0.1410
N	    2.1718	   -0.2295	    0.4819
C	   -2.8919	   -1.0907	   -0.0871
C	    2.8536	   -1.0569	   -0.3246
O	   -3.1412	   -2.9183	    1.2684
O	   -4.5777	   -2.6134	   -0.3747
O	    4.4984	   -2.6130	   -0.6742
O	    4.3494	   -1.6494	    1.3019
H	   -0.5945	   -0.0472	    1.9561
H	   -0.1037	    1.3095	    2.8323
H	    1.0247	    0.3144	    2.0656
H	    0.4162	    1.3589	   -2.2301
H	    0.1812	    3.0201	   -2.0283
H	   -1.1254	    1.9495	   -2.0015
H	   -2.2083	    2.7421	    0.0809
H	   -1.7105	    2.9118	    1.6421
H	   -1.1240	    3.9315	    0.4865
H	    2.3251	    2.0900	    0.9045
H	    1.9381	    3.2510	   -0.1957
H	    1.4424	    3.4143	    1.3681
