21

Co	    0.4595	   -0.0000	    0.0000
O	   -1.0794	   -0.0002	   -1.0881
O	   -1.0795	    0.0001	    1.0880
O	   -3.0987	    0.0000	   -0.0000
N	    0.3033	    1.9626	   -0.0003
N	    1.7215	   -0.0003	   -1.5788
N	    1.7214	    0.0003	    1.5789
N	    0.3034	   -1.9626	    0.0003
C	   -1.8915	    0.0000	    0.0000
H	   -0.2790	    2.1967	   -0.8225
H	    1.1219	    2.5893	   -0.0012
H	   -0.2780	    2.1975	    0.8223
H	    1.0872	   -0.0006	   -2.3959
H	    2.3378	   -0.8184	   -1.7023
H	    2.3376	    0.8179	   -1.7028
H	    2.3369	   -0.8183	    1.7033
H	    1.0872	    0.0015	    2.3960
H	    2.3384	    0.8180	    1.7019
H	    1.1220	   -2.5893	   -0.0018
H	   -0.2801	   -2.1966	   -0.8211
H	   -0.2768	   -2.1976	    0.8237
