30

Cr	    1.2986	    0.0297	    0.0008
C	    2.6451	   -0.1845	    1.2356
O	    3.5043	   -0.3086	    2.0148
C	    2.6058	    0.2693	   -1.3511
O	    3.4293	    0.4067	   -2.1559
C	    1.2345	    1.8747	    0.3484
O	    1.1723	    3.0126	    0.5909
C	    0.0320	   -0.2486	    1.3501
O	   -0.7286	   -0.4421	    2.2151
C	    1.2585	   -1.8206	   -0.3576
O	    1.2280	   -2.9686	   -0.5417
B	   -0.7675	   -0.0505	   -1.7991
H	   -0.9436	    0.7629	   -2.7126
H	   -0.5466	   -1.1656	   -2.2403
H	    0.2613	    0.5829	   -1.3205
C	   -2.0003	   -0.0016	   -0.7981
N	   -2.6328	    1.1219	   -0.3458
C	   -3.6566	    0.7906	    0.5271
H	   -4.2839	    1.5470	    1.0069
C	   -3.6728	   -0.5770	    0.6137
H	   -4.3127	   -1.2513	    1.1894
N	   -2.6580	   -1.0424	   -0.2075
C	   -2.2341	    2.4785	   -0.6901
H	   -1.4643	    2.8524	    0.0131
H	   -3.1185	    3.1407	   -0.6578
H	   -1.8067	    2.4727	   -1.7089
C	   -2.2775	   -2.4429	   -0.3202
H	   -1.6387	   -2.5649	   -1.2112
H	   -3.1842	   -3.0690	   -0.4166
H	   -1.7044	   -2.7536	    0.5758
