81

Au	   -0.0000	   -0.6975	   -0.0000
N	    2.0564	   -0.6988	    0.0153
N	    0.0001	    1.4153	   -0.0000
N	   -2.0565	   -0.6987	   -0.0153
N	    6.5663	    5.8384	   -0.0618
N	   -6.5657	    5.8390	    0.0618
O	   -7.2856	    5.9235	   -0.9329
O	   -6.6512	    6.5479	    1.0642
O	    7.2861	    5.9229	    0.9329
O	    6.6518	    6.5473	   -1.0642
C	   -1.1133	    2.2310	    0.0128
C	   -0.6863	    3.6147	    0.0007
H	   -1.3561	    4.4803	   -0.0069
C	    0.6866	    3.6146	   -0.0006
H	    1.3564	    4.4802	    0.0069
C	    1.1135	    2.2309	   -0.0128
C	    2.4485	    1.7894	   -0.0197
C	    2.8602	    0.4377	   -0.0187
C	    4.2378	    0.0222	   -0.0918
H	    5.0909	    0.7038	   -0.1592
C	    4.2560	   -1.3532	   -0.0906
H	    5.1249	   -2.0151	   -0.1559
C	    2.8939	   -1.8065	   -0.0165
C	    2.4979	   -3.1634	   -0.0160
C	    1.1488	   -3.5527	   -0.0102
C	    0.6818	   -4.9508	    0.0017
H	    1.3445	   -5.8238	    0.0108
C	   -0.6822	   -4.9508	   -0.0017
H	   -1.3449	   -5.8237	   -0.0109
C	   -1.1491	   -3.5527	    0.0102
C	   -2.4982	   -3.1632	    0.0160
C	   -2.8941	   -1.8062	    0.0165
C	   -4.2561	   -1.3529	    0.0906
H	   -5.1251	   -2.0147	    0.1559
C	   -4.2378	    0.0225	    0.0918
H	   -5.0909	    0.7042	    0.1593
C	   -2.8602	    0.4379	    0.0187
C	   -2.4484	    1.7896	    0.0197
C	   -0.0001	   -2.7095	   -0.0000
C	    3.5169	    2.8333	   -0.0323
C	    3.6829	    3.6773	   -1.1536
H	    3.0250	    3.5465	   -2.0253
C	    4.6774	    4.6615	   -1.1704
H	    4.8313	    5.3250	   -2.0316
C	    5.5089	    4.7967	   -0.0515
C	    5.3727	    3.9777	    1.0768
H	    6.0469	    4.1302	    1.9299
C	    4.3746	    2.9975	    1.0791
H	    4.2442	    2.3483	    1.9573
C	    3.5666	   -4.2044	   -0.0312
C	    4.4601	   -4.3400	    1.0533
H	    4.3573	   -3.6691	    1.9196
C	    5.4568	   -5.3266	    1.0383
H	    6.1407	   -5.4241	    1.8951
C	    5.5783	   -6.1906	   -0.0616
H	    6.3614	   -6.9636	   -0.0736
C	    4.6951	   -6.0642	   -1.1456
H	    4.7870	   -6.7347	   -2.0136
C	    3.6953	   -5.0809	   -1.1305
H	    3.0068	   -4.9758	   -1.9823
C	   -3.5669	   -4.2042	    0.0312
C	   -3.6957	   -5.0806	    1.1304
H	   -3.0072	   -4.9756	    1.9823
C	   -4.6956	   -6.0638	    1.1456
H	   -4.7875	   -6.7344	    2.0136
C	   -5.5788	   -6.1902	    0.0616
H	   -6.3620	   -6.9632	    0.0736
C	   -5.4573	   -5.3262	   -1.0382
H	   -6.1412	   -5.4236	   -1.8951
C	   -4.4605	   -4.3396	   -1.0533
H	   -4.3577	   -3.6688	   -1.9196
C	   -3.5167	    2.8336	    0.0323
C	   -4.3743	    2.9979	   -1.0791
H	   -4.2439	    2.3488	   -1.9574
C	   -5.3723	    3.9783	   -1.0768
H	   -6.0464	    4.1309	   -1.9300
C	   -5.5085	    4.7972	    0.0515
C	   -4.6770	    4.6618	    1.1704
H	   -4.8310	    5.3253	    2.0317
C	   -3.6827	    3.6775	    1.1537
H	   -3.0248	    3.5465	    2.0253
