17

W	    1.0064	    0.0000	    0.0003
F	    0.6769	    1.8597	   -0.0005
F	    0.6770	   -1.8597	   -0.0006
F	    0.6849	    0.0000	   -1.8551
F	    0.6781	   -0.0002	    1.8544
O	    2.7137	    0.0001	    0.0036
N	   -1.4583	    0.0001	   -0.0026
C	   -2.1465	   -1.1621	   -0.0018
C	   -3.5455	   -1.2059	   -0.0000
C	   -4.2604	   -0.0001	    0.0011
C	   -3.5456	    1.2058	    0.0002
C	   -2.1466	    1.1622	   -0.0018
H	   -1.5399	   -2.0800	   -0.0025
H	   -4.0601	   -2.1773	    0.0005
H	   -5.3609	   -0.0001	    0.0027
H	   -4.0603	    2.1772	    0.0009
H	   -1.5401	    2.0801	   -0.0027
