32

Mn	   -0.0003	    0.0011	    0.2725
P	    2.0973	   -0.0005	   -0.4200
P	   -2.0984	   -0.0008	   -0.4187
N	    0.0011	   -1.4579	    1.0641
O	    0.0040	   -2.4521	    1.7203
C	   -3.3473	    0.0004	    0.9429
C	    2.6114	   -1.4514	   -1.4303
C	    3.3462	    0.0009	    0.9416
C	   -2.6128	   -1.4517	   -1.4291
H	   -4.3899	   -0.0009	    0.5632
H	   -3.1793	   -0.8941	    1.5741
H	    3.6870	   -1.4080	   -1.6972
H	    2.4093	   -2.3717	   -0.8482
H	    1.9955	   -1.4833	   -2.3492
H	    4.3888	   -0.0003	    0.5620
H	    3.1783	   -0.8936	    1.5728
H	   -3.6884	   -1.4083	   -1.6957
H	   -1.9971	   -1.4836	   -2.3481
H	   -2.4105	   -2.3721	   -0.8471
H	   -0.0010	   -0.0003	   -1.3324
N	    0.0010	    1.4622	    1.0603
C	    2.6130	    1.4467	   -1.4348
C	   -2.6148	    1.4462	   -1.4336
H	   -3.1807	    0.8971	    1.5713
H	    3.1794	    0.8976	    1.5700
O	    0.0020	    2.4575	    1.7148
H	    3.6886	    1.4014	   -1.7014
H	    2.4117	    2.3691	   -0.8558
H	    1.9974	    1.4763	   -2.3540
H	   -3.6904	    1.4006	   -1.6999
H	   -1.9993	    1.4759	   -2.3529
H	   -2.4136	    2.3687	   -0.8547
