36

Cr	   -0.6106	   -0.0003	   -0.5687
O	    0.1185	    2.2302	   -2.4141
O	   -3.4958	    0.0052	   -1.3470
O	    0.1119	   -2.2364	   -2.4099
N	    2.1657	   -1.1132	    0.4418
N	    2.1648	    1.1154	    0.4422
C	    2.5664	   -2.4764	    0.1351
H	    3.6535	   -2.5080	   -0.0608
H	    2.0141	   -2.8282	   -0.7605
H	    2.3337	   -3.1369	    0.9922
C	    2.8969	    0.0014	    0.2127
C	    0.8802	    0.7137	    0.8412
C	    2.5642	    2.4789	    0.1358
H	    3.6516	    2.5117	   -0.0588
H	    2.3299	    3.1392	    0.9926
H	    2.0127	    2.8300	   -0.7606
C	   -0.3979	    1.2035	    1.2689
C	   -0.8211	    2.6237	    1.4881
H	   -0.5475	    2.9933	    2.5017
H	   -1.9179	    2.7255	    1.3826
H	   -0.3659	    3.3016	    0.7400
C	   -1.1694	   -0.0007	    1.5397
C	   -2.5595	   -0.0012	    2.1025
H	   -2.5455	    0.0010	    3.2140
H	   -3.1269	   -0.8917	    1.7712
H	   -3.1290	    0.8865	    1.7676
C	   -0.3967	   -1.2041	    1.2686
C	    0.8810	   -0.7129	    0.8412
C	   -0.8182	   -2.6249	    1.4875
H	   -0.5416	   -2.9952	    2.5000
H	   -0.3642	   -3.3016	    0.7375
H	   -1.9150	   -2.7275	    1.3846
C	   -0.2159	    1.3199	   -1.7345
C	   -2.3525	    0.0029	   -1.0692
C	   -0.2204	   -1.3240	   -1.7321
H	    3.9003	    0.0019	   -0.2262
