41

Mn	    0.5839	    0.0001	    0.5323
O	    2.6244	   -2.0962	    0.9602
N	   -1.0049	   -1.2164	   -0.1411
O	   -0.1765	    0.0005	    3.3832
N	   -1.0049	    1.2164	   -0.1414
C	    0.1159	    0.0003	    2.2564
N	    0.5149	   -0.0002	   -1.6138
O	    2.6244	    2.0965	    0.9598
C	    0.4406	    2.6657	   -1.8946
H	   -0.3047	    3.4751	   -1.7708
H	    0.6206	    2.5394	   -2.9815
H	    1.3913	    3.0336	   -1.4540
C	   -1.4101	    2.4463	    0.5353
H	   -2.2493	    2.9327	   -0.0080
H	   -0.5726	    3.1682	    0.6041
H	   -1.7587	    2.2273	    1.5615
C	    0.4405	   -2.6661	   -1.8939
H	    0.6207	   -2.5401	   -2.9808
H	   -0.3047	   -3.4755	   -1.7700
H	    1.3912	   -3.0340	   -1.4532
C	    1.8139	    1.2730	    0.7948
C	    1.8139	   -1.2728	    0.7951
C	   -2.8908	   -0.0002	   -1.5924
H	   -2.2398	   -0.0003	   -2.4948
H	   -3.5538	    0.8887	   -1.6740
H	   -3.5538	   -0.8891	   -1.6738
C	    1.6837	   -0.0003	   -2.5046
H	    1.3601	   -0.0004	   -3.5665
H	    2.3100	   -0.8940	   -2.3318
H	    2.3100	    0.8934	   -2.3320
C	   -1.4101	   -2.4462	    0.5359
H	   -2.2493	   -2.9327	   -0.0073
H	   -1.7587	   -2.2269	    1.5620
H	   -0.5726	   -3.1681	    0.6049
B	   -0.0511	   -1.3194	   -1.2280
B	   -0.0511	    1.3191	   -1.2283
C	   -3.0549	    0.0001	    1.0895
H	   -2.5608	    0.0003	    2.0839
H	   -3.7284	   -0.8824	    1.0620
H	   -3.7284	    0.8827	    1.0617
B	   -2.0647	   -0.0000	   -0.1901
