80

La	    0.1228	   -0.0046	   -0.0100
N	   -3.7588	    1.2954	   -0.6417
N	   -1.0667	   -2.0925	   -0.7002
N	   -1.3600	   -1.3666	    1.4800
Si	    2.3744	    2.6561	   -0.7423
B	   -2.3860	    1.7243	   -0.7222
C	    2.7246	    0.9156	   -0.0820
C	    2.8286	   -0.3014	   -0.8645
C	    2.8998	   -0.5237	   -2.2727
H	    2.9516	    0.3265	   -2.9660
C	    2.9535	   -1.8279	   -2.7671
H	    3.0283	   -1.9871	   -3.8539
C	    2.9287	   -2.9534	   -1.9016
H	    2.9882	   -3.9669	   -2.3252
C	    2.8151	   -2.7766	   -0.5228
H	    2.7739	   -3.6462	    0.1514
C	    2.7467	   -1.4671	    0.0069
C	    2.5832	   -0.9800	    1.3585
C	    2.4171	   -1.6538	    2.5912
H	    2.4438	   -2.7541	    2.6248
C	    2.2075	   -0.9139	    3.7548
H	    2.0766	   -1.4267	    4.7191
C	    2.1471	    0.5040	    3.6987
H	    1.9680	    1.0714	    4.6250
C	    2.3226	    1.1973	    2.4997
H	    2.2991	    2.2955	    2.4948
C	    2.5763	    0.4771	    1.2931
C	    3.1685	    2.9648	   -2.4319
H	    2.6787	    2.4074	   -3.2543
H	    4.2414	    2.6849	   -2.4217
H	    3.0945	    4.0443	   -2.6762
C	    2.9707	    4.0070	    0.4411
H	    2.9119	    4.9913	   -0.0672
H	    4.0252	    3.8308	    0.7358
H	    2.3677	    4.0788	    1.3673
C	    0.4811	    2.6293	   -0.8652
C	   -0.3037	    2.8128	    0.3231
H	    0.1912	    3.2899	    1.1896
C	   -1.6286	    2.3729	    0.4650
H	   -2.0982	    2.5777	    1.4432
C	   -0.1676	    2.0211	   -1.9921
H	    0.4356	    1.8790	   -2.9090
C	   -1.4873	    1.5381	   -1.9728
H	   -1.8399	    1.0693	   -2.9091
C	   -4.5457	    1.4456	    0.5766
H	   -5.3075	    0.6352	    0.6218
H	   -3.8914	    1.2793	    1.4577
C	   -5.2362	    2.8081	    0.6962
H	   -5.8429	    2.8735	    1.6232
H	   -4.4858	    3.6241	    0.7123
H	   -5.9113	    2.9911	   -0.1650
C	   -4.4867	    0.7524	   -1.7807
H	   -4.0128	    1.1107	   -2.7172
H	   -5.5201	    1.1698	   -1.7925
C	   -4.5514	   -0.7783	   -1.7915
H	   -3.5299	   -1.2041	   -1.8184
H	   -5.1145	   -1.1539	   -2.6707
H	   -5.0507	   -1.1675	   -0.8799
C	   -1.6963	   -2.1751	    0.4740
H	   -2.5316	   -2.9132	    0.6070
C	   -1.4001	   -3.0304	   -1.7659
H	   -2.4992	   -3.2387	   -1.7456
C	   -1.0574	   -2.4049	   -3.1209
H	   -1.6108	   -1.4562	   -3.2717
H	   -1.3085	   -3.0903	   -3.9546
H	    0.0295	   -2.1827	   -3.1745
C	   -0.6671	   -4.3666	   -1.5671
H	    0.4293	   -4.2033	   -1.5825
H	   -0.9288	   -5.0901	   -2.3666
H	   -0.9316	   -4.8220	   -0.5912
C	   -2.0246	   -1.5078	    2.7699
H	   -3.1017	   -1.7624	    2.6055
C	   -1.9590	   -0.1810	    3.5305
H	   -0.9008	    0.1081	    3.7058
H	   -2.4618	   -0.2574	    4.5151
H	   -2.4445	    0.6301	    2.9526
C	   -1.3871	   -2.6447	    3.5853
H	   -1.4488	   -3.6078	    3.0391
H	   -1.8932	   -2.7707	    4.5645
H	   -0.3156	   -2.4235	    3.7671
