62

Zr	    0.0735	   -0.9670	   -0.2504
Cl	    1.1146	   -2.9269	    0.7735
Cl	   -1.7228	   -2.0422	   -1.4667
Si	   -0.1134	    2.3188	   -0.6631
N	    2.3601	   -0.9558	   -1.4571
N	   -1.6317	   -0.8228	    1.6487
B	    2.2919	    0.3704	   -0.8028
B	   -2.0558	    0.3168	    0.7726
C	    1.0425	    1.0248	   -1.4219
C	    0.5773	    0.1008	   -2.4258
H	   -0.3146	    0.2144	   -3.0590
C	    1.3454	   -1.0782	   -2.4073
H	    1.2536	   -1.9786	   -3.0279
C	    3.4255	   -1.9590	   -1.3743
H	    2.9811	   -2.9590	   -1.5521
H	    3.8100	   -1.9647	   -0.3384
C	    4.5492	   -1.6554	   -2.3627
H	    4.1791	   -1.6462	   -3.4078
H	    5.3435	   -2.4242	   -2.2857
H	    5.0028	   -0.6672	   -2.1479
C	    3.3288	    0.8513	    0.2753
C	    3.9324	    2.1244	    0.1395
H	    3.6646	    2.7535	   -0.7238
C	    4.8640	    2.5984	    1.0766
H	    5.3190	    3.5923	    0.9443
C	    5.2138	    1.8072	    2.1821
H	    5.9415	    2.1776	    2.9205
C	    4.6265	    0.5412	    2.3423
H	    4.8896	   -0.0828	    3.2105
C	    3.6987	    0.0720	    1.4003
H	    3.2286	   -0.9135	    1.5564
C	   -0.7929	    1.1782	    0.6749
C	    0.1454	    0.6169	    1.6352
H	    1.1462	    1.0001	    1.8805
C	   -0.3751	   -0.5547	    2.1941
H	    0.0689	   -1.2248	    2.9397
C	   -2.4242	   -1.9687	    2.1099
H	   -1.7220	   -2.7524	    2.4611
H	   -2.9485	   -2.3905	    1.2310
C	   -3.4151	   -1.5759	    3.2021
H	   -2.8919	   -1.1615	    4.0875
H	   -3.9965	   -2.4612	    3.5282
H	   -4.1268	   -0.8127	    2.8302
C	   -3.5075	    0.5849	    0.2421
C	   -3.9580	    1.9281	    0.2964
H	   -3.2698	    2.7023	    0.6710
C	   -5.2542	    2.2901	   -0.0989
H	   -5.5729	    3.3426	   -0.0427
C	   -6.1435	    1.3086	   -0.5633
H	   -7.1621	    1.5857	   -0.8762
C	   -5.7234	   -0.0301	   -0.6270
H	   -6.4116	   -0.8056	   -0.9977
C	   -4.4263	   -0.3840	   -0.2282
H	   -4.1093	   -1.4326	   -0.3210
C	   -1.4250	    2.8338	   -1.9165
H	   -2.1113	    3.5933	   -1.4925
H	   -2.0455	    1.9692	   -2.2262
H	   -0.9472	    3.2677	   -2.8190
C	    0.7916	    3.8121	    0.0485
H	    1.3140	    4.3775	   -0.7505
H	    1.5473	    3.5061	    0.7985
H	    0.0705	    4.4967	    0.5407
