59

Hg	   -0.0000	    0.9623	   -0.0001
S	    2.1287	   -0.7104	   -1.6335
O	    2.9215	   -0.5002	   -2.8550
O	    0.7375	   -1.2382	   -1.7146
N	    1.8736	    0.7772	   -0.8082
N	    4.1576	    1.3283	   -0.7109
N	    2.4661	    2.6510	    0.3852
N	    5.2121	   -3.9893	    2.2771
H	    6.2289	   -3.9321	    2.2743
H	    4.7874	   -4.2010	    3.1783
C	    2.8858	    1.6097	   -0.3781
C	    5.1093	    2.1648	   -0.2600
C	    4.7792	    3.2936	    0.5162
H	    5.5478	    3.9868	    0.8844
C	    3.4201	    3.4822	    0.8129
H	    3.0874	    4.3357	    1.4300
C	    3.0418	   -1.7056	   -0.4810
C	    4.4237	   -1.8790	   -0.6634
H	    4.9095	   -1.4113	   -1.5304
C	    5.1482	   -2.6331	    0.2599
H	    6.2303	   -2.7812	    0.1173
C	    4.5063	   -3.2161	    1.3846
C	    3.1088	   -3.0165	    1.5475
H	    2.5939	   -3.4601	    2.4138
C	    2.3775	   -2.2706	    0.6246
H	    1.2965	   -2.1225	    0.7729
C	    6.5266	    1.8175	   -0.6219
H	    7.2527	    2.5556	   -0.2338
H	    6.6273	    1.7485	   -1.7239
H	    6.7774	    0.8144	   -0.2192
S	   -2.1287	   -0.7104	    1.6334
O	   -2.9214	   -0.5002	    2.8549
O	   -0.7374	   -1.2382	    1.7145
N	   -1.8736	    0.7772	    0.8081
N	   -4.1576	    1.3283	    0.7109
N	   -2.4661	    2.6511	   -0.3852
N	   -5.2121	   -3.9894	   -2.2770
H	   -6.2289	   -3.9323	   -2.2742
H	   -4.7874	   -4.2012	   -3.1782
C	   -2.8858	    1.6098	    0.3781
C	   -5.1093	    2.1648	    0.2600
C	   -4.7793	    3.2936	   -0.5161
H	   -5.5479	    3.9869	   -0.8842
C	   -3.4202	    3.4822	   -0.8128
H	   -3.0875	    4.3358	   -1.4299
C	   -3.0418	   -1.7056	    0.4810
C	   -4.4236	   -1.8791	    0.6634
H	   -4.9095	   -1.4113	    1.5304
C	   -5.1482	   -2.6332	   -0.2598
H	   -6.2302	   -2.7812	   -0.1173
C	   -4.5062	   -3.2162	   -1.3846
C	   -3.1088	   -3.0166	   -1.5474
H	   -2.5939	   -3.4602	   -2.4137
C	   -2.3774	   -2.2707	   -0.6245
H	   -1.2964	   -2.1226	   -0.7729
C	   -6.5267	    1.8175	    0.6220
H	   -7.2528	    2.5556	    0.2339
H	   -6.6273	    1.7484	    1.7240
H	   -6.7775	    0.8144	    0.2193
