27

Fe	   -1.4422	    0.0000	    0.0424
C	   -2.5049	   -1.3005	    0.6013
C	   -0.3152	    0.0007	    1.4239
C	   -2.5059	    1.3000	    0.6007
C	   -0.3405	    1.2071	   -1.3351
C	   -1.5643	    0.7185	   -1.9096
C	   -1.5643	   -0.7188	   -1.9095
C	   -0.3405	   -1.2072	   -1.3349
B	    0.5921	   -0.0000	   -1.0223
C	    2.0694	   -0.0000	   -0.4957
C	    2.7648	   -1.2088	   -0.2541
C	    4.0877	   -1.2144	    0.2103
C	    4.7532	    0.0000	    0.4448
C	    4.0876	    1.2144	    0.2104
C	    2.7647	    1.2088	   -0.2540
O	   -3.1911	   -2.1656	    0.9585
O	    0.3632	    0.0011	    2.3626
O	   -3.1929	    2.1647	    0.9575
H	   -0.1847	    2.2857	   -1.1844
H	   -2.3972	    1.3321	   -2.2837
H	   -2.3972	   -1.3324	   -2.2835
H	   -0.1847	   -2.2858	   -1.1840
H	    2.2558	   -2.1694	   -0.4336
H	    4.6051	   -2.1694	    0.3908
H	    5.7920	    0.0000	    0.8098
H	    4.6050	    2.1695	    0.3910
H	    2.2557	    2.1694	   -0.4334
