78

Au	   -0.3834	   -0.1537	    0.1161
P	    2.0213	   -0.0094	   -0.0683
N	   -3.3469	   -0.0837	   -0.2757
B	   -2.3941	   -1.0129	    0.1252
Cl	   -1.8274	    1.9305	   -1.6775
B	   -2.3446	    1.0216	   -0.0721
C	    2.7039	   -0.9522	   -1.4850
C	    2.2209	   -2.2623	   -1.6937
H	    1.4521	   -2.6759	   -1.0216
C	    2.7122	   -3.0311	   -2.7569
H	    2.3312	   -4.0515	   -2.9140
C	    3.6768	   -2.4948	   -3.6268
H	    4.0552	   -3.0963	   -4.4671
C	    4.1497	   -1.1884	   -3.4290
H	    4.8998	   -0.7633	   -4.1130
C	    3.6675	   -0.4154	   -2.3606
H	    4.0360	    0.6101	   -2.2083
C	    2.9159	   -0.6599	    1.3947
C	    4.1388	   -1.3524	    1.2897
H	    4.5809	   -1.5376	    0.2988
C	    4.7847	   -1.8112	    2.4483
H	    5.7383	   -2.3541	    2.3623
C	    4.2165	   -1.5818	    3.7115
H	    4.7244	   -1.9458	    4.6175
C	    2.9946	   -0.8969	    3.8184
H	    2.5413	   -0.7248	    4.8063
C	    2.3410	   -0.4420	    2.6649
H	    1.3721	    0.0776	    2.7414
C	    2.6273	    1.7070	   -0.2829
C	    3.8704	    2.1304	    0.2306
H	    4.4996	    1.4288	    0.7991
C	    4.2980	    3.4504	    0.0233
H	    5.2669	    3.7799	    0.4284
C	    3.4903	    4.3490	   -0.6930
H	    3.8264	    5.3855	   -0.8489
C	    2.2494	    3.9288	   -1.1983
H	    1.6056	    4.6327	   -1.7470
C	    1.8102	    2.6129	   -0.9921
H	    0.8205	    2.2979	   -1.3643
C	   -2.3428	   -2.5987	    0.4682
C	   -3.6555	   -3.1267	    1.0827
H	   -3.9059	   -2.5909	    2.0213
H	   -3.5519	   -4.2051	    1.3352
H	   -4.5227	   -3.0357	    0.4027
C	   -2.0249	   -3.3546	   -0.8420
H	   -1.0836	   -2.9840	   -1.3002
H	   -2.8262	   -3.2375	   -1.5978
H	   -1.9008	   -4.4429	   -0.6452
C	   -1.2250	   -2.9081	    1.4921
H	   -0.2183	   -2.6530	    1.1008
H	   -1.2254	   -3.9906	    1.7491
H	   -1.3617	   -2.3361	    2.4329
C	   -4.7573	   -0.0851	   -0.7387
C	   -5.0768	    1.2153	   -1.4989
H	   -4.9556	    2.1071	   -0.8593
H	   -6.1283	    1.1848	   -1.8477
H	   -4.4136	    1.3382	   -2.3750
C	   -5.7115	   -0.2127	    0.4650
H	   -5.5946	    0.6509	    1.1488
H	   -5.5135	   -1.1347	    1.0421
H	   -6.7661	   -0.2360	    0.1224
C	   -4.9667	   -1.2494	   -1.7247
H	   -4.2650	   -1.1557	   -2.5769
H	   -6.0016	   -1.2325	   -2.1216
H	   -4.8046	   -2.2342	   -1.2514
C	   -2.3837	    2.0220	    1.2306
C	   -1.0601	    2.7962	    1.3964
H	   -0.8236	    3.3902	    0.4916
H	   -0.2014	    2.1127	    1.5752
H	   -1.1143	    3.4921	    2.2626
C	   -3.5102	    3.0660	    1.0765
H	   -3.4073	    3.6328	    0.1287
H	   -3.4806	    3.7979	    1.9142
H	   -4.5156	    2.5995	    1.0919
C	   -2.6386	    1.2035	    2.5100
H	   -1.8308	    0.4581	    2.6756
H	   -3.5934	    0.6424	    2.4594
H	   -2.6804	    1.8621	    3.4052
