63

Au	   -0.9497	   -1.3471	    0.0656
C	   -0.5530	    0.6391	    2.4544
N	   -0.8665	    1.5755	   -0.1277
Cl	   -0.7139	   -3.6981	   -0.0381
B	   -0.2080	    0.5961	    0.8335
B	   -1.6831	    0.5396	   -0.5873
N	    1.3610	    0.4157	    0.4207
C	   -0.0095	    1.8746	    3.2118
H	    1.0950	    1.9823	    3.1793
H	   -0.2885	    1.8179	    4.2871
H	   -0.4373	    2.8187	    2.8209
N	    5.3474	   -0.1068	   -0.8528
C	   -0.0997	   -0.6366	    3.2056
H	    1.0000	   -0.7738	    3.2448
H	   -0.5159	   -1.5511	    2.7352
H	   -0.4545	   -0.6095	    4.2595
C	    2.9650	    0.0969	   -1.3578
H	    3.1136	   -0.0354	   -2.4356
C	    1.6738	    0.2598	   -0.8966
H	    0.8164	    0.2548	   -1.5827
C	   -2.0936	    0.6929	    2.5852
H	   -2.3922	    0.7347	    3.6552
H	   -2.5620	   -0.2075	    2.1371
H	   -2.5243	    1.5790	    2.0786
C	    4.0606	    0.0761	   -0.4401
C	    2.3889	    0.4150	    1.3018
H	    2.1213	    0.5505	    2.3538
C	    3.7169	    0.2535	    0.9300
H	    4.4766	    0.2611	    1.7200
C	    5.6400	   -0.3049	   -2.2645
H	    5.3225	    0.5669	   -2.8764
H	    5.1363	   -1.2103	   -2.6671
H	    6.7286	   -0.4332	   -2.3957
C	    6.4242	   -0.1450	    0.1242
H	    7.3843	   -0.3044	   -0.3968
H	    6.2880	   -0.9717	    0.8550
H	    6.4970	    0.8076	    0.6926
C	   -0.6694	    3.0231	   -0.3708
C	   -1.7561	    3.8492	    0.3464
H	   -1.6973	    3.7115	    1.4434
H	   -2.7667	    3.5434	    0.0200
H	   -1.6319	    4.9302	    0.1307
C	   -0.7070	    3.3043	   -1.8852
H	   -0.5072	    4.3767	   -2.0832
H	   -1.6873	    3.0557	   -2.3290
H	    0.0663	    2.7071	   -2.4090
C	    0.7168	    3.4669	    0.1386
H	    0.8266	    4.5617	    0.0084
H	    1.5336	    2.9791	   -0.4285
H	    0.8543	    3.2395	    1.2107
C	   -2.9670	    0.3947	   -1.5657
C	   -3.9071	    1.6160	   -1.5173
H	   -4.2954	    1.7868	   -0.4920
H	   -4.7861	    1.4457	   -2.1773
H	   -3.4274	    2.5537	   -1.8563
C	   -2.4286	    0.1895	   -3.0010
H	   -1.8545	    1.0652	   -3.3659
H	   -3.2681	    0.0198	   -3.7112
H	   -1.7655	   -0.6995	   -3.0520
C	   -3.8180	   -0.8409	   -1.1887
H	   -3.2504	   -1.7877	   -1.2921
H	   -4.7095	   -0.9063	   -1.8510
H	   -4.1790	   -0.7850	   -0.1413
