57

Au	   -1.3109	   -0.3384	    0.0730
B	    0.6132	   -1.2318	   -0.0629
B	    0.5825	    0.7562	    0.3961
N	    1.6074	   -0.2559	   -0.1182
Cl	   -3.6679	   -0.2716	   -0.1973
P	    0.0705	    2.1114	   -1.0464
C	    0.2545	    1.3240	   -2.6920
H	   -0.0200	    2.0346	   -3.4951
H	   -0.4141	    0.4418	   -2.7245
H	    1.2954	    0.9787	   -2.8318
C	    1.0515	    3.6748	   -1.1572
H	    0.7369	    4.2579	   -2.0456
H	    2.1335	    3.4638	   -1.2182
H	    0.8595	    4.2776	   -0.2484
C	   -1.6411	    2.7869	   -1.0734
H	   -1.7553	    3.4297	   -1.9692
H	   -1.8128	    3.3931	   -0.1648
H	   -2.3884	    1.9673	   -1.0894
C	    0.6126	    1.3518	    1.9305
C	    0.6167	    0.1574	    2.9087
H	    0.6857	    0.5063	    3.9623
H	    1.4706	   -0.5256	    2.7243
H	   -0.3135	   -0.4392	    2.8074
C	   -0.6345	    2.2094	    2.2289
H	   -0.6661	    2.4964	    3.3024
H	   -1.5776	    1.6726	    1.9952
H	   -0.6312	    3.1587	    1.6515
C	    1.8484	    2.2263	    2.2317
H	    1.7886	    2.6389	    3.2630
H	    1.9330	    3.0933	    1.5439
H	    2.7951	    1.6552	    2.1715
C	    3.0692	   -0.2329	   -0.3623
C	    3.5382	    1.1975	   -0.6762
H	    4.6389	    1.2129	   -0.7987
H	    3.2777	    1.9032	    0.1322
H	    3.0983	    1.5609	   -1.6256
C	    3.3958	   -1.0989	   -1.5940
H	    4.4795	   -1.0509	   -1.8214
H	    2.8402	   -0.7395	   -2.4833
H	    3.1304	   -2.1590	   -1.4380
C	    3.8385	   -0.7541	    0.8686
H	    4.9289	   -0.7706	    0.6674
H	    3.5199	   -1.7783	    1.1324
H	    3.6639	   -0.1065	    1.7490
C	    0.4935	   -2.8448	   -0.1510
C	    1.7149	   -3.5957	    0.4175
H	    1.5482	   -4.6927	    0.3458
H	    1.8733	   -3.3586	    1.4897
H	    2.6570	   -3.3788	   -0.1200
C	    0.3003	   -3.1945	   -1.6462
H	    0.1458	   -4.2890	   -1.7699
H	    1.1752	   -2.9072	   -2.2634
H	   -0.5921	   -2.6823	   -2.0624
C	   -0.7411	   -3.3585	    0.6292
H	   -0.7876	   -4.4685	    0.5770
H	   -1.6939	   -2.9661	    0.2185
H	   -0.6975	   -3.0741	    1.7004
