57

Fe	    0.0745	   -1.0427	   -1.0356
B	   -1.0634	    0.0698	    0.4029
B	    0.9910	    0.4586	    0.1746
N	   -0.2549	    0.9459	   -0.5197
N	    0.1858	   -0.5060	    0.9911
C	    0.3932	   -2.7545	   -0.8978
C	    1.4566	   -0.8203	   -2.1201
C	   -1.4303	   -1.3181	   -1.9197
O	    0.6188	   -3.8973	   -0.8170
O	    2.3474	   -0.7138	   -2.8663
O	   -2.3967	   -1.5020	   -2.5491
C	   -2.5735	    0.0842	    0.8564
C	   -2.9477	    1.2324	    1.8152
C	   -4.4176	    1.2133	    2.2370
C	    2.4548	    1.0407	    0.2781
C	    2.7279	    1.9612	    1.4840
C	    4.1212	    2.5916	    1.4574
C	   -0.5534	    2.1168	   -1.3685
C	   -2.0223	    2.0993	   -1.8198
C	    0.3521	    2.1364	   -2.6096
C	   -0.2922	    3.3752	   -0.5139
C	    0.4739	   -1.3317	    2.1802
C	   -0.5146	   -2.5036	    2.2934
C	    1.9120	   -1.8687	    2.1146
C	    0.3133	   -0.4205	    3.4161
H	   -2.8206	   -0.8862	    1.3369
H	   -3.2266	    0.1328	   -0.0407
H	   -2.7143	    2.2089	    1.3358
H	   -2.3006	    1.1927	    2.7189
H	   -4.6626	    2.0484	    2.9245
H	   -4.6734	    0.2650	    2.7546
H	   -5.0873	    1.2951	    1.3553
H	    2.6765	    1.5990	   -0.6573
H	    3.1854	    0.2034	    0.2867
H	    2.6049	    1.3838	    2.4261
H	    1.9576	    2.7619	    1.5308
H	    4.2997	    3.2389	    2.3400
H	    4.2615	    3.2148	    0.5493
H	    4.9126	    1.8132	    1.4447
H	   -2.2129	    2.9574	   -2.4938
H	   -2.7148	    2.1852	   -0.9613
H	   -2.2627	    1.1724	   -2.3737
H	    1.4237	    2.0965	   -2.3368
H	    0.1806	    3.0669	   -3.1861
H	    0.1320	    1.2737	   -3.2670
H	   -0.5690	    4.2879	   -1.0778
H	    0.7770	    3.4539	   -0.2365
H	   -0.8920	    3.3497	    0.4179
H	   -0.3135	   -3.0700	    3.2238
H	   -0.4201	   -3.2027	    1.4429
H	   -1.5605	   -2.1461	    2.3350
H	    2.1164	   -2.5094	    2.9945
H	    2.6513	   -1.0453	    2.1153
H	    2.0698	   -2.4758	    1.2026
H	    0.5560	   -0.9806	    4.3407
H	   -0.7278	   -0.0513	    3.5003
H	    0.9871	    0.4561	    3.3548
