81

Zr	   -1.1598	   -0.4409	   -0.3775
B	    0.8430	   -1.9620	   -1.2297
C	   -0.2302	   -2.7572	   -0.4675
C	   -1.4595	   -2.6954	   -1.2069
C	   -1.2854	   -1.8663	   -2.3582
C	    0.0409	   -1.3398	   -2.3953
C	   -2.2569	    1.9000	   -0.0324
Si	   -1.7953	    3.3903	    1.0491
C	   -3.1491	    3.5478	    2.3672
C	   -1.8158	    4.8983	   -0.0901
C	   -0.1045	    3.3193	    1.8943
C	   -3.2400	    0.8956	    0.2320
C	   -3.5303	    0.1332	   -0.9487
Si	   -4.9916	   -1.0506	   -1.1187
C	   -4.8818	   -2.0911	   -2.6922
C	   -5.1071	   -2.1626	    0.4120
C	   -6.5451	    0.0306	   -1.1980
C	   -2.7138	    0.7143	   -1.9840
C	   -1.9432	    1.7641	   -1.4296
C	    2.3590	   -1.7709	   -0.8339
C	    2.9033	   -2.2792	    0.3621
C	    4.2062	   -2.0010	    0.8031
C	    5.0373	   -1.1891	    0.0143
C	    4.5495	   -0.6755	   -1.1979
C	    3.2435	   -0.9899	   -1.6033
F	    2.1565	   -3.0531	    1.1822
F	    4.6603	   -2.4941	    1.9623
F	    6.2763	   -0.8972	    0.4199
F	    5.3204	    0.1306	   -1.9387
F	    2.8377	   -0.4526	   -2.7700
O	   -1.7097	   -1.1494	    1.7959
C	   -1.6345	   -0.1626	    2.8627
C	   -2.8427	   -0.1502	    3.7826
C	   -1.8919	   -2.5152	    2.2660
C	   -0.7439	   -3.0121	    3.1254
C	    0.7919	    0.8309	   -0.3238
C	    1.5363	    0.6159	    0.8352
C	    2.7962	    1.1595	    1.1033
C	    3.3605	    2.0181	    0.1453
C	    2.6578	    2.2838	   -1.0433
C	    1.4055	    1.6783	   -1.2531
F	    1.0211	   -0.2465	    1.7766
F	    3.4714	    0.8617	    2.2239
F	    4.5724	    2.5443	    0.3455
F	    3.2099	    3.0722	   -1.9734
F	    0.8323	    1.9229	   -2.4604
H	   -0.1240	   -3.3628	    0.4399
H	   -2.3949	   -3.2273	   -0.9725
H	   -2.0697	   -1.6904	   -3.1048
H	    0.3572	   -0.6333	   -3.1752
H	   -2.9822	    4.4536	    2.9857
H	   -3.1716	    2.6780	    3.0545
H	   -4.1505	    3.6331	    1.8982
H	   -1.0280	    4.8130	   -0.8666
H	   -1.6236	    5.8282	    0.4835
H	   -2.7925	    5.0018	   -0.6043
H	    0.7122	    3.3269	    1.1463
H	    0.0396	    2.4269	    2.5342
H	    0.0091	    4.2178	    2.5363
H	   -3.7322	    0.7393	    1.2003
H	   -4.7160	   -1.4541	   -3.5852
H	   -5.8379	   -2.6330	   -2.8461
H	   -4.0706	   -2.8439	   -2.6518
H	   -6.0505	   -2.7461	    0.3944
H	   -5.1027	   -1.5629	    1.3455
H	   -4.2658	   -2.8814	    0.4634
H	   -6.5072	    0.7091	   -2.0746
H	   -6.6362	    0.6605	   -0.2895
H	   -7.4623	   -0.5885	   -1.2814
H	   -2.7090	    0.4229	   -3.0404
H	   -1.2264	    2.3776	   -1.9839
H	   -1.5263	    0.8045	    2.3393
H	   -0.6955	   -0.3263	    3.4264
H	   -3.7920	   -0.0484	    3.2201
H	   -2.7563	    0.7190	    4.4647
H	   -2.9085	   -1.0551	    4.4175
H	   -1.9926	   -3.1156	    1.3476
H	   -2.8637	   -2.5645	    2.7996
H	    0.2269	   -2.8771	    2.6106
H	   -0.8852	   -4.0942	    3.3198
H	   -0.6968	   -2.5060	    4.1097
