73

B	    0.0396	    1.0775	   -2.0205
H	    0.0549	    1.5499	   -3.1405
C	   -0.0698	    4.3411	   -2.2237
H	    0.8679	    4.1595	   -2.7881
H	   -0.1315	    5.4217	   -1.9982
H	   -0.9114	    4.0810	   -2.8982
C	   -0.1132	    3.5486	   -0.9589
C	   -0.2148	    3.9641	    0.3755
H	   -0.2871	    4.9973	    0.7296
C	   -0.2124	    2.7858	    1.1664
C	   -0.3998	    2.6398	    2.6649
C	    0.4967	    3.6581	    3.3992
H	    1.5661	    3.4939	    3.1578
H	    0.3705	    3.5578	    4.4965
H	    0.2398	    4.7013	    3.1257
C	   -0.0365	    1.2183	    3.1270
H	   -0.5667	    0.4421	    2.5304
H	   -0.3178	    1.0730	    4.1892
H	    1.0487	    1.0320	    3.0314
C	   -1.8830	    2.9337	    2.9928
H	   -2.1701	    3.9537	    2.6680
H	   -2.0610	    2.8532	    4.0851
H	   -2.5516	    2.2139	    2.4802
C	   -2.1182	    0.2585	   -4.2097
H	   -2.0702	    1.3530	   -4.3853
H	   -2.9971	   -0.1372	   -4.7517
H	   -1.2074	   -0.1837	   -4.6617
C	   -2.2311	   -0.0694	   -2.7562
C	   -3.2879	   -0.6581	   -2.0595
H	   -4.2395	   -0.9894	   -2.4869
C	   -2.8916	   -0.7188	   -0.6986
C	   -3.7192	   -1.2363	    0.4677
C	   -3.1016	   -0.8456	    1.8192
H	   -3.7461	   -1.2099	    2.6444
H	   -3.0120	    0.2546	    1.9130
H	   -2.0959	   -1.2900	    1.9485
C	   -3.8302	   -2.7749	    0.3667
H	   -2.8288	   -3.2431	    0.4351
H	   -4.2914	   -3.0790	   -0.5947
H	   -4.4613	   -3.1668	    1.1911
C	   -5.1316	   -0.6154	    0.3718
H	   -5.6450	   -0.8996	   -0.5684
H	   -5.0866	    0.4918	    0.4161
H	   -5.7579	   -0.9703	    1.2157
C	    2.3724	    0.4046	   -4.0702
H	    1.5318	   -0.1329	   -4.5538
H	    3.3116	    0.0793	   -4.5547
H	    2.2328	    1.4849	   -4.2815
C	    2.4372	    0.1263	   -2.6035
C	    3.5047	   -0.3415	   -1.8350
H	    4.5054	   -0.5912	   -2.2014
C	    3.0415	   -0.4029	   -0.4960
C	    3.8487	   -0.8020	    0.7290
C	    5.2037	   -0.0597	    0.6812
H	    5.7948	   -0.3378	   -0.2141
H	    5.8077	   -0.3193	    1.5747
H	    5.0593	    1.0397	    0.6684
C	    4.1040	   -2.3261	    0.7006
H	    3.1480	   -2.8837	    0.7411
H	    4.7263	   -2.6248	    1.5697
H	    4.6392	   -2.6223	   -0.2242
C	    3.1204	   -0.4144	    2.0248
H	    2.9639	    0.6822	    2.0737
H	    3.7256	   -0.7172	    2.9029
H	    2.1340	   -0.9123	    2.0980
I	    0.1564	   -2.6595	    0.6569
N	   -1.6513	   -0.2038	   -0.5965
N	   -1.2468	    0.2028	   -1.8489
N	   -0.1082	    1.7344	    0.3301
N	   -0.0520	    2.1880	   -0.9440
N	    1.7542	   -0.0043	   -0.4720
N	    1.3850	    0.3289	   -1.7567
Ni	    0.0115	   -0.1587	    0.3882
