73

Ta	    0.0458	   -0.5758	   -0.1991
Si	   -0.2129	    2.8420	    1.4071
Si	   -3.1475	    0.4273	   -1.5727
C	    0.0933	   -2.9711	    0.4426
C	   -1.0500	   -2.3848	    1.0823
C	    0.8588	   -1.4032	    1.9772
C	   -0.0544	    1.2444	    0.4629
C	   -1.6598	   -0.7396	   -1.5688
C	    0.0633	   -4.0327	   -0.6167
C	   -2.4742	   -2.8226	    0.9205
C	    1.7804	   -0.6649	    2.8986
C	    0.3954	    4.2746	    0.3155
C	    0.8184	    2.8711	    3.0039
C	   -2.6006	    2.1748	   -2.0707
C	   -4.0214	    0.5118	    0.1070
C	   -4.4132	   -0.1738	   -2.8595
H	    0.2597	    5.2465	    0.8343
H	    1.4716	    4.1620	    0.0732
H	    0.4269	    2.1728	    3.7715
H	    1.8796	    2.6145	    2.8130
H	    0.7856	    3.8909	    3.4411
H	   -2.0676	    2.1679	   -3.0443
H	   -3.4825	    2.8400	   -2.1744
H	   -1.9268	    2.6223	   -1.3141
H	   -3.2931	    0.7634	    0.9027
H	   -4.8057	    1.2966	    0.1002
H	   -4.5136	   -0.4484	    0.3633
H	   -4.7704	   -1.1968	   -2.6177
H	   -5.3002	    0.4927	   -2.8987
H	   -3.9678	   -0.2056	   -3.8755
H	    0.1405	   -5.0468	   -0.1683
H	   -0.8774	   -4.0042	   -1.2002
H	   -3.1831	   -1.9968	    1.1136
H	   -2.6817	   -3.2117	   -0.0950
H	   -2.7092	   -3.6381	    1.6384
H	    2.7024	   -0.3310	    2.3877
H	    1.2995	    0.2303	    3.3280
H	    2.0865	   -1.3228	    3.7414
H	   -2.0078	   -1.7910	   -1.6706
H	   -1.1319	   -0.5123	   -2.5314
H	   -0.0258	    1.4555	   -0.6652
C	    1.2733	   -2.3674	    0.9943
C	   -0.5765	   -1.4067	    2.0277
C	    1.7710	   -0.5866	   -1.5570
C	   -2.0127	    3.2028	    1.9023
H	    0.9043	   -3.9263	   -1.3302
H	   -0.1640	    4.3224	   -0.6416
C	    2.6912	   -2.7759	    0.7282
C	   -1.4282	   -0.6484	    3.0012
Si	    3.1153	    0.7453	   -1.5451
H	    2.2346	   -1.5940	   -1.6238
H	    1.2444	   -0.4414	   -2.5348
H	   -2.4147	    2.4073	    2.5621
H	   -2.6710	    3.2649	    1.0127
H	   -2.0812	    4.1664	    2.4497
H	    3.3809	   -1.9099	    0.7319
H	    2.8009	   -3.2882	   -0.2468
H	    3.0427	   -3.4822	    1.5113
H	   -2.4032	   -0.3647	    2.5620
H	   -0.9315	    0.2808	    3.3359
H	   -1.6349	   -1.2639	    3.9039
C	    2.4350	    2.3018	   -2.3897
C	    3.7055	    1.1970	    0.1983
C	    4.6212	    0.1363	   -2.5341
H	    2.1907	    2.0980	   -3.4530
H	    3.1785	    3.1251	   -2.3659
H	    1.5160	    2.6700	   -1.8916
H	    2.8405	    1.5239	    0.8098
H	    4.4486	    2.0201	    0.1613
H	    4.1877	    0.3358	    0.7057
H	    5.0566	   -0.7741	   -2.0712
H	    5.4193	    0.9068	   -2.5767
H	    4.3391	   -0.1195	   -3.5764
