61

Co	    0.0153	   -0.8805	    0.8663
C	   -1.2136	   -0.9453	   -0.7971
C	   -0.7355	    0.3964	   -0.5024
C	    0.7274	    0.4103	   -0.5099
C	    1.2283	   -0.9234	   -0.8106
C	   -2.6370	   -1.3333	   -0.8754
C	   -3.0715	   -2.5831	   -0.3732
C	   -4.4086	   -2.9842	   -0.4861
C	   -5.3465	   -2.1516	   -1.1197
C	   -4.9270	   -0.9201	   -1.6458
C	   -3.5907	   -0.5133	   -1.5241
C	   -1.5718	    1.6016	   -0.2742
C	   -2.6243	    1.6090	    0.6671
C	   -3.4237	    2.7464	    0.8391
C	   -3.1891	    3.8985	    0.0703
C	   -2.1514	    3.9008	   -0.8745
C	   -1.3489	    2.7635	   -1.0452
C	    1.5381	    1.6377	   -0.3203
C	    1.3369	    2.5132	    0.7689
C	    2.0929	    3.6863	    0.8930
C	    3.0618	    4.0086	   -0.0715
C	    3.2666	    3.1489	   -1.1623
C	    2.5130	    1.9731	   -1.2857
C	    2.6566	   -1.3123	   -0.7922
C	    3.0900	   -2.3331	   -1.6701
C	    4.4308	   -2.7413	   -1.7037
C	    5.3719	   -2.1461	   -0.8493
C	    4.9571	   -1.1397	    0.0395
C	    3.6191	   -0.7269	    0.0671
C	   -1.1562	   -1.4631	    2.4307
C	   -0.4515	   -0.2584	    2.7784
C	    0.9541	   -0.5222	    2.6636
C	    1.1192	   -1.8924	    2.2553
C	   -0.1835	   -2.4805	    2.1204
B	    0.0157	   -1.8558	   -1.0457
H	    0.0151	   -3.0533	   -1.2458
H	   -2.2454	   -1.5842	    2.3754
H	   -0.9115	    0.6999	    3.0485
H	    1.7618	    0.2019	    2.8250
H	    2.0740	   -2.3823	    2.0280
H	   -0.3950	   -3.5088	    1.8059
H	   -2.3363	   -3.2429	    0.1104
H	   -4.7218	   -3.9586	   -0.0801
H	   -6.3974	   -2.4659	   -1.2098
H	   -5.6480	   -0.2651	   -2.1590
H	   -3.2749	    0.4487	   -1.9515
H	   -2.8174	    0.7044	    1.2605
H	   -4.2388	    2.7327	    1.5787
H	   -3.8163	    4.7926	    0.2069
H	   -1.9618	    4.7969	   -1.4849
H	   -0.5379	    2.7690	   -1.7878
H	    0.5750	    2.2653	    1.5213
H	    1.9234	    4.3558	    1.7502
H	    3.6564	    4.9294	    0.0272
H	    4.0221	    3.3938	   -1.9243
H	    2.6756	    1.2984	   -2.1391
H	    2.3503	   -2.8020	   -2.3357
H	    4.7424	   -3.5338	   -2.4015
H	    6.4244	   -2.4675	   -0.8713
H	    5.6848	   -0.6715	    0.7202
H	    3.3092	    0.0570	    0.7721
