75

Rh	    0.0238	    0.6778	   -0.5241
Cl	   -0.5476	   -0.3220	   -2.8163
C	    0.8021	    1.6536	    1.1981
C	    2.2294	    1.1360	    1.3585
C	    2.9905	    1.3669	    2.5034
H	    2.5246	    1.8960	    3.3479
C	    4.3321	    0.9141	    2.5894
H	    4.9102	    1.1123	    3.5048
C	    4.9225	    0.2237	    1.5373
H	    5.9623	   -0.1307	    1.6048
C	    4.1724	   -0.0575	    0.3611
C	    2.8159	    0.4037	    0.2993
C	    4.6639	   -0.8011	   -0.7482
H	    5.6979	   -1.1790	   -0.7318
C	    3.8274	   -1.0517	   -1.8235
H	    4.1677	   -1.6311	   -2.6926
C	    2.4889	   -0.5892	   -1.7994
H	    1.7699	   -0.7902	   -2.6110
C	    0.8230	    3.1627	    0.8777
H	    1.3374	    3.6674	    1.7252
C	    1.5484	    3.5247	   -0.4680
H	    2.6502	    3.5646	   -0.3951
C	    0.8097	    4.8239	   -0.8826
H	    1.0860	    5.1620	   -1.9013
H	    0.9324	    5.6640	   -0.1673
C	   -0.5934	    4.1536	   -0.8146
H	   -1.4643	    4.7581	   -1.1307
C	   -0.5995	    3.7588	    0.6839
H	   -0.7390	    4.6671	    1.3031
H	   -1.3974	    3.0514	    0.9549
C	   -0.3344	    2.9235	   -1.6865
H	   -1.0078	    2.5321	   -2.4595
C	    0.9919	    2.5807	   -1.5345
H	    1.5902	    1.9867	   -2.2350
C	    0.9637	   -2.5782	    0.1157
C	    2.0241	   -2.9446	    0.9657
H	    2.0940	   -2.4650	    1.9542
C	    2.9570	   -3.9062	    0.5463
H	    3.7863	   -4.1901	    1.2128
C	    2.8288	   -4.5092	   -0.7151
H	    3.5576	   -5.2675	   -1.0409
C	    1.7682	   -4.1438	   -1.5617
H	    1.6672	   -4.6120	   -2.5531
C	    0.8385	   -3.1753	   -1.1547
H	    0.0381	   -2.8546	   -1.8382
C	   -1.8542	   -2.0481	    0.5823
C	   -2.4404	   -2.4753	    1.7910
H	   -1.8784	   -2.3253	    2.7257
C	   -3.7152	   -3.0594	    1.7842
H	   -4.1693	   -3.3937	    2.7301
C	   -4.4116	   -3.2163	    0.5738
H	   -5.4127	   -3.6752	    0.5685
C	   -3.8263	   -2.7895	   -0.6298
H	   -4.3713	   -2.9051	   -1.5797
C	   -2.5504	   -2.2039	   -0.6319
H	   -2.1038	   -1.8342	   -1.5705
C	   -2.9258	    0.9596	   -1.1863
H	   -2.4840	    0.9319	   -2.1931
C	   -4.3056	    0.8894	   -0.9898
H	   -4.9636	    0.8690	   -1.8714
C	   -4.8397	    0.8021	    0.3094
C	   -3.9126	    0.8554	    1.3658
H	   -4.2452	    0.8074	    2.4131
C	   -2.5453	    0.9384	    1.1016
H	   -1.7957	    0.9910	    1.9070
C	   -6.3081	    0.6045	    0.5545
H	   -6.9233	    0.9982	   -0.2776
H	   -6.6357	    1.0814	    1.4988
H	   -6.5242	   -0.4824	    0.6439
N	    2.0015	    0.1062	   -0.7697
N	   -2.0445	    0.9640	   -0.1570
O	    0.1067	    1.4730	    2.3901
H	    0.1239	    0.4496	    2.5280
O	    0.1046	   -1.0614	    2.2379
P	   -0.1833	   -1.2680	    0.7143
