76

Y	   -0.8095	    0.3816	   -0.1437
Si	   -4.4819	   -0.1088	    0.7871
O	    0.6722	   -0.4402	    1.5349
N	   -0.2279	    2.7532	   -1.3054
N	   -1.1224	   -2.0803	   -1.3022
B	    0.6022	    2.7829	   -0.0796
B	    0.2908	   -1.7429	   -1.6125
C	   -0.4219	    2.7358	    1.0439
H	   -0.2902	    2.7056	    2.1352
C	   -1.7193	    2.7871	    0.4366
H	   -2.6891	    2.7922	    0.9518
C	   -1.5884	    2.7635	   -0.9597
H	   -2.3675	    2.8427	   -1.7279
C	    0.1748	    3.0179	   -2.6783
H	   -0.0831	    4.0607	   -2.9599
H	   -0.3241	    2.3324	   -3.3921
H	    1.2672	    2.8964	   -2.7807
C	    2.1732	    2.7390	   -0.0391
C	    2.9655	    1.9790	   -0.9363
H	    2.4758	    1.4178	   -1.7475
C	    4.3596	    1.8866	   -0.7999
H	    4.9399	    1.2765	   -1.5100
C	    5.0100	    2.5614	    0.2457
H	    6.1029	    2.4905	    0.3576
C	    4.2530	    3.3298	    1.1462
H	    4.7545	    3.8682	    1.9657
C	    2.8601	    3.4142	    1.0027
H	    2.2775	    4.0177	    1.7171
C	    0.1736	   -0.4740	   -2.4435
H	    0.9531	    0.1268	   -2.9319
C	   -1.2271	   -0.2440	   -2.6668
H	   -1.6871	    0.5429	   -3.2821
C	   -1.9795	   -1.1832	   -1.9510
H	   -3.0668	   -1.3073	   -1.9009
C	   -1.6840	   -3.2380	   -0.6224
H	   -1.9076	   -4.0515	   -1.3453
H	   -2.6196	   -2.9671	   -0.0970
H	   -0.9689	   -3.6358	    0.1207
C	    1.5590	   -2.5179	   -1.1043
C	    1.6058	   -3.9196	   -0.8932
H	    0.7156	   -4.5338	   -1.0989
C	    2.7757	   -4.5645	   -0.4590
H	    2.7755	   -5.6556	   -0.3091
C	    3.9478	   -3.8258	   -0.2296
H	    4.8661	   -4.3304	    0.1079
C	    3.9365	   -2.4369	   -0.4461
H	    4.8488	   -1.8424	   -0.2785
C	    2.7617	   -1.8018	   -0.8710
H	    2.7708	   -0.7115	   -1.0181
C	   -2.6653	   -0.2757	    1.2018
H	   -2.4915	   -1.3228	    1.5461
H	   -2.4452	    0.3754	    2.0846
C	   -5.5113	    0.4649	    2.2847
H	   -6.5878	    0.5731	    2.0344
H	   -5.1509	    1.4487	    2.6533
H	   -5.4246	   -0.2551	    3.1249
C	   -5.2092	   -1.7793	    0.2186
H	   -4.7855	   -2.1296	   -0.7453
H	   -6.3072	   -1.6947	    0.0794
H	   -5.0276	   -2.5725	    0.9739
C	   -4.8426	    1.1404	   -0.6109
H	   -4.2580	    0.9100	   -1.5257
H	   -4.5954	    2.1786	   -0.3082
H	   -5.9193	    1.1233	   -0.8808
C	    1.6165	    0.2509	    2.3896
H	    1.0756	    0.5971	    3.2996
H	    1.9948	    1.1264	    1.8352
C	    2.6718	   -0.8073	    2.7133
H	    3.4718	   -0.7876	    1.9488
H	    3.1375	   -0.6245	    3.7006
C	    1.8967	   -2.1491	    2.6457
H	    2.3946	   -2.8536	    1.9534
H	    1.8129	   -2.6405	    3.6342
C	    0.5082	   -1.7574	    2.1153
H	    0.1341	   -2.4222	    1.3176
H	   -0.2544	   -1.6887	    2.9223
