83

Zr	   -0.0000	   -0.1362	    0.0000
Cl	   -0.1739	   -1.7607	    1.8212
Cl	    0.1740	   -1.7607	   -1.8212
N	   -1.6081	    3.1234	    1.7260
N	    1.6081	    3.1234	   -1.7260
C	   -1.3751	    1.9799	   -0.6509
C	   -1.8055	    0.9617	   -1.5332
C	   -2.4492	   -0.2132	   -1.0239
C	   -2.6301	   -0.3746	    0.3890
C	   -2.1894	    0.5902	    1.3161
C	   -1.6025	    1.0926	   -3.0235
C	   -3.1039	   -1.2230	   -1.9453
C	   -3.8570	   -2.2989	   -1.1514
C	   -2.9144	   -2.8349	   -0.0449
C	   -3.3782	   -1.6193	    0.8041
C	   -4.7374	   -1.6655	   -0.0137
C	   -5.7223	   -2.6753	    0.5867
C	   -5.4803	   -0.3579	   -0.2865
C	   -1.8190	    3.0634	    3.1565
C	   -1.3657	    4.4673	    1.2502
C	    1.3751	    1.9799	    0.6509
C	    1.8055	    0.9617	    1.5332
C	    2.4492	   -0.2131	    1.0239
C	    2.6301	   -0.3746	   -0.3890
C	    2.1893	    0.5902	   -1.3160
C	    1.6025	    1.0926	    3.0235
C	    3.1039	   -1.2229	    1.9453
C	    3.8571	   -2.2988	    1.1515
C	    2.9145	   -2.8349	    0.0449
C	    3.3782	   -1.6193	   -0.8041
C	    4.7375	   -1.6654	    0.0137
C	    5.7223	   -2.6753	   -0.5867
C	    5.4804	   -0.3578	    0.2864
C	    1.8189	    3.0634	   -3.1565
C	    1.3656	    4.4673	   -1.2502
B	   -1.7355	    1.9839	    0.8560
B	    1.7355	    1.9839	   -0.8560
H	   -0.8461	    2.8111	   -1.1427
H	   -2.3198	    0.2965	    2.3714
H	   -1.1690	    0.1720	   -3.4604
H	   -2.5788	    1.2642	   -3.5250
H	   -0.9406	    1.9459	   -3.2606
H	   -2.3342	   -1.7037	   -2.5882
H	   -3.7954	   -0.6868	   -2.6326
H	   -4.3521	   -3.0243	   -1.8303
H	   -1.8368	   -2.9057	   -0.2807
H	   -3.2529	   -3.7935	    0.3876
H	   -3.4286	   -1.7145	    1.9060
H	   -5.2568	   -3.6527	    0.8163
H	   -6.5594	   -2.8601	   -0.1187
H	   -6.1586	   -2.2808	    1.5278
H	   -6.3136	   -0.5307	   -0.9995
H	   -5.9229	    0.0384	    0.6511
H	   -4.8336	    0.4360	   -0.7052
H	   -0.9426	    3.4703	    3.7159
H	   -2.7053	    3.6646	    3.4715
H	   -1.9765	    2.0232	    3.4929
H	   -0.4194	    4.8980	    1.6602
H	   -2.1870	    5.1575	    1.5573
H	   -1.3011	    4.4916	    0.1480
H	    0.8461	    2.8111	    1.1427
H	    2.3198	    0.2965	   -2.3714
H	    0.9406	    1.9459	    3.2606
H	    1.1690	    0.1721	    3.4604
H	    2.5788	    1.2643	    3.5250
H	    2.3342	   -1.7036	    2.5883
H	    3.7955	   -0.6867	    2.6326
H	    4.3521	   -3.0242	    1.8303
H	    1.8369	   -2.9056	    0.2807
H	    3.2530	   -3.7934	   -0.3876
H	    3.4286	   -1.7145	   -1.9060
H	    6.5594	   -2.8601	    0.1187
H	    5.2568	   -3.6527	   -0.8163
H	    6.1586	   -2.2809	   -1.5278
H	    4.8338	    0.4360	    0.7052
H	    5.9230	    0.0384	   -0.6512
H	    6.3137	   -0.5307	    0.9994
H	    1.9765	    2.0232	   -3.4929
H	    0.9425	    3.4702	   -3.7159
H	    2.7052	    3.6646	   -3.4716
H	    2.1868	    5.1576	   -1.5573
H	    0.4193	    4.8980	   -1.6602
H	    1.3010	    4.4916	   -0.1480
