81

Zr	   -1.0461	    0.6068	   -0.2380
C	   -3.0545	    1.6884	    0.8428
C	   -3.0304	    0.3286	    1.2990
C	   -1.8800	    0.0852	    2.1186
C	   -1.1790	    1.3349	    2.1818
C	   -1.8781	    2.3006	    1.4043
Si	   -4.5375	    2.5094	    0.0086
C	   -4.2183	    4.3591	   -0.2177
C	   -4.9625	    1.6637	   -1.6332
C	   -6.0042	    2.2800	    1.1873
Si	   -1.5538	   -1.5152	    3.0752
C	   -2.8377	   -1.5695	    4.4682
C	    0.1821	   -1.5577	    3.8081
C	   -1.8423	   -2.9969	    1.9272
C	    0.9352	   -0.3304	    0.5307
C	    1.9549	    0.2332	    1.3042
F	    1.8474	    1.5138	    1.7460
C	    3.1480	   -0.4362	    1.6138
F	    4.1262	    0.1638	    2.3068
C	    3.3312	   -1.7567	    1.1623
F	    4.4657	   -2.4065	    1.4382
C	    2.3245	   -2.3779	    0.4034
F	    2.4921	   -3.6298	   -0.0455
C	    1.1695	   -1.6385	    0.1156
F	    0.2211	   -2.2561	   -0.6710
B	    0.9228	    1.4957	   -1.7292
C	   -0.0302	    2.6027	   -1.2058
C	   -1.3137	    2.4185	   -1.8289
C	   -1.3072	    1.2295	   -2.6122
C	   -0.0285	    0.5869	   -2.5330
C	    2.4707	    1.3261	   -1.4708
C	    3.2348	    2.2982	   -0.7960
F	    2.6786	    3.4674	   -0.4286
C	    4.5755	    2.1035	   -0.4258
F	    5.2510	    3.0513	    0.2357
C	    5.2104	    0.8942	   -0.7523
F	    6.4822	    0.6835	   -0.3993
C	    4.4952	   -0.0971	   -1.4433
F	    5.0806	   -1.2699	   -1.7252
C	    3.1620	    0.1458	   -1.8042
F	    2.5265	   -0.8593	   -2.4444
N	   -2.3330	   -1.0027	   -1.1778
C	   -2.7105	   -2.0174	   -1.6201
C	   -3.1397	   -3.2913	   -2.2059
C	   -2.1192	   -4.3743	   -1.7760
C	   -3.1504	   -3.1265	   -3.7446
C	   -4.5528	   -3.6247	   -1.6734
H	   -3.7996	   -0.4205	    1.0645
H	   -0.2356	    1.5130	    2.7105
H	   -1.5814	    3.3489	    1.2758
H	   -4.0033	    4.8361	    0.7605
H	   -5.1176	    4.8521	   -0.6410
H	   -3.3675	    4.5765	   -0.8937
H	   -5.0392	    0.5653	   -1.4953
H	   -4.1970	    1.8547	   -2.4101
H	   -5.9391	    2.0272	   -2.0147
H	   -6.2158	    1.2041	    1.3562
H	   -6.9238	    2.7479	    0.7787
H	   -5.7927	    2.7397	    2.1742
H	   -3.8693	   -1.5237	    4.0629
H	   -2.7081	   -0.7098	    5.1569
H	   -2.7422	   -2.5021	    5.0622
H	    0.9538	   -1.6886	    3.0261
H	    0.2673	   -2.4011	    4.5239
H	    0.4105	   -0.6238	    4.3609
H	   -2.8678	   -2.9697	    1.5026
H	   -1.7360	   -3.9480	    2.4884
H	   -1.1174	   -3.0054	    1.0907
H	    0.1799	    3.4707	   -0.5659
H	   -2.1754	    3.0920	   -1.7373
H	   -2.1797	    0.8624	   -3.1734
H	    0.1647	   -0.3722	   -3.0342
H	   -2.4107	   -5.3366	   -2.2417
H	   -2.1100	   -4.5000	   -0.6766
H	   -1.0940	   -4.1156	   -2.1019
H	   -3.4618	   -4.0850	   -4.2050
H	   -2.1435	   -2.8668	   -4.1250
H	   -3.8618	   -2.3392	   -4.0616
H	   -4.8819	   -4.5880	   -2.1106
H	   -5.2867	   -2.8451	   -1.9573
H	   -4.5511	   -3.7267	   -0.5705
