51

Ta	    0.2382	   -0.3740	   -0.3739
Cl	    1.3401	   -2.3441	    0.5739
Cl	   -0.0817	   -0.8197	   -2.6856
N	   -0.4302	    0.0195	    1.9226
N	   -1.7449	   -1.9529	    0.0399
C	   -1.2177	    1.3263	   -0.3622
C	   -1.9215	    1.8287	   -1.4848
C	   -2.7882	    2.9304	   -1.3807
C	   -2.9841	    3.5639	   -0.1434
C	   -2.2987	    3.0933	    0.9877
C	   -1.4233	    2.0006	    0.8694
C	   -0.6192	    1.4959	    2.0342
C	    0.5557	   -0.4011	    2.9430
C	   -1.7417	   -0.6564	    2.1642
C	   -1.8407	   -2.0282	    1.5140
C	   -2.9619	   -1.3642	   -0.5539
C	   -1.5597	   -3.3014	   -0.5307
C	    1.8529	    0.6469	   -0.2799
C	    3.2420	    1.1828	   -0.0747
C	    3.1867	    2.5487	    0.6468
C	    3.9335	    1.3524	   -1.4468
C	    4.0393	    0.1750	    0.7776
H	   -1.7901	    1.3455	   -2.4662
H	   -3.3209	    3.2932	   -2.2741
H	   -3.6710	    4.4197	   -0.0576
H	   -2.4439	    3.5819	    1.9655
H	    0.3978	    1.9428	    2.0138
H	   -1.0829	    1.7463	    3.0173
H	    1.5331	    0.0584	    2.7098
H	    0.6863	   -1.4963	    2.9223
H	    0.2198	   -0.0755	    3.9534
H	   -1.9153	   -0.7470	    3.2597
H	   -2.5322	    0.0097	    1.7675
H	    1.2215	    1.2848	   -1.0123
H	   -2.8000	   -2.5107	    1.8215
H	   -1.0143	   -2.6787	    1.8623
H	   -3.1583	   -0.3575	   -0.1477
H	   -3.8451	   -2.0196	   -0.3677
H	   -2.8123	   -1.2575	   -1.6443
H	   -0.6361	   -3.7508	   -0.1244
H	   -1.4537	   -3.2139	   -1.6283
H	   -2.4339	   -3.9525	   -0.2968
H	    2.7237	    2.4476	    1.6499
H	    2.5896	    3.2836	    0.0688
H	    4.2070	    2.9659	    0.7829
H	    3.9713	    0.3856	   -1.9868
H	    4.9718	    1.7257	   -1.3213
H	    3.3843	    2.0765	   -2.0832
H	    3.5818	    0.0461	    1.7793
H	    5.0821	    0.5277	    0.9187
H	    4.0609	   -0.8211	    0.2948
