33

Zr	   -0.0003	   -0.3770	   -0.0099
Cl	   -1.2560	   -0.9689	    1.9709
Cl	   -0.0087	   -2.5815	   -1.0433
C	    2.4654	    0.2547	   -0.7868
C	    2.5072	   -1.0394	   -0.2360
C	    2.1133	   -1.2928	    1.1072
C	    1.7070	   -0.2270	    1.9506
C	    1.6284	    1.0986	    1.4806
C	    2.4105	    2.9837	   -0.3588
C	   -2.5623	    0.0372	   -0.7780
C	   -1.8177	   -0.2864	   -1.9172
C	   -0.6789	    0.4814	   -2.3129
C	   -0.3134	    1.6423	   -1.5900
C	   -0.9700	    2.0054	   -0.3917
C	   -3.1589	    1.7903	    1.2655
B	    2.1628	    1.4848	    0.0918
B	   -2.2542	    1.2924	    0.0702
H	    2.7309	    0.3409	   -1.8553
H	    2.7852	   -1.9046	   -0.8575
H	    2.1154	   -2.3228	    1.4888
H	    1.3809	   -0.4784	    2.9713
H	    1.2273	    1.8435	    2.1898
H	    1.6197	    3.6883	   -0.0266
H	    2.5681	    3.1156	   -1.4490
H	    3.3456	    3.3309	    0.1354
H	   -3.3766	   -0.6576	   -0.5105
H	   -2.0526	   -1.1862	   -2.5064
H	   -0.1121	    0.1892	   -3.2082
H	    0.5425	    2.2291	   -1.9562
H	   -0.5581	    2.8784	    0.1423
H	   -2.6091	    2.4063	    2.0059
H	   -3.6531	    0.9559	    1.8021
H	   -3.9700	    2.4337	    0.8554
