19

Ti	    0.4693	   -0.1560	   -0.0047
Cl	    2.0709	    0.0944	   -1.5153
Cl	   -0.4107	   -2.1233	   -0.4999
Cl	    1.6231	   -0.5622	    1.8358
C	   -1.4295	    0.7410	    1.3342
C	   -0.3905	    1.6932	    1.3316
C	    0.1407	    2.2078	    0.1204
C	   -0.4195	    1.8284	   -1.1353
C	   -1.4667	    0.8984	   -1.2203
C	   -3.4110	   -0.6271	   -0.0046
B	   -2.1455	    0.3150	    0.0391
H	   -1.6881	    0.3083	    2.3162
H	    0.1013	    1.9892	    2.2722
H	    1.0022	    2.8899	    0.1460
H	    0.0579	    2.2256	   -2.0454
H	   -1.7613	    0.5827	   -2.2363
H	   -3.4542	   -1.2473	   -0.9225
H	   -3.4852	   -1.2986	    0.8744
H	   -4.3275	    0.0053	   -0.0032
