83

C	    3.6884	    0.7622	    1.3288
C	    4.0923	   -0.5755	    1.6793
C	    2.1273	   -1.2978	    0.7689
C	    4.5704	    1.9442	    1.3119
C	    4.0825	    3.2034	    1.7215
H	    3.0538	    3.2784	    2.1033
C	    4.9040	    4.3346	    1.6444
H	    4.5239	    5.3119	    1.9785
C	    6.2086	    4.2231	    1.1354
H	    6.8510	    5.1141	    1.0671
C	    6.6884	    2.9760	    0.7018
H	    7.6997	    2.8905	    0.2774
C	    5.8789	    1.8382	    0.7921
H	    6.2394	    0.8676	    0.4226
C	    5.3348	   -0.9066	    2.4011
C	    5.9873	   -2.1237	    2.0972
H	    5.5777	   -2.7550	    1.2934
C	    7.1631	   -2.4733	    2.7724
H	    7.6796	   -3.4102	    2.5147
C	    7.6853	   -1.6312	    3.7679
H	    8.6076	   -1.9112	    4.2996
C	    7.0307	   -0.4281	    4.0848
H	    7.4318	    0.2285	    4.8714
C	    5.8670	   -0.0600	    3.4008
H	    5.3572	    0.8811	    3.6524
C	    1.2408	   -2.2975	    0.1892
C	    1.5830	   -3.6431	   -0.0003
H	    2.5790	   -3.9767	    0.3201
C	    0.6582	   -4.4750	   -0.6418
H	    0.8982	   -5.5330	   -0.8223
C	   -0.5634	   -3.9359	   -1.0762
H	   -1.3091	   -4.5504	   -1.5997
C	   -0.8382	   -2.5808	   -0.8562
H	   -1.7707	   -2.1099	   -1.1920
N	    1.6279	   -0.0215	    0.6892
N	    2.4129	    0.9868	    0.9671
N	    3.2797	   -1.5931	    1.3533
N	    0.0452	   -1.7890	   -0.2186
Ni	   -0.1898	    0.0724	    0.0852
Br	   -0.6401	    0.4892	   -2.3642
Br	   -3.3059	    0.9230	   -2.0877
Br	   -5.7624	    1.3370	   -1.6222
C	   -4.0748	   -1.0118	    1.0617
C	   -4.5883	    0.2314	    1.5862
C	   -2.5668	    1.1695	    1.0582
C	   -4.8796	   -2.2188	    0.7798
C	   -4.3359	   -3.4991	    1.0257
H	   -3.3311	   -3.5763	    1.4663
C	   -5.0750	   -4.6483	    0.7181
H	   -4.6526	   -5.6428	    0.9271
C	   -6.3516	   -4.5309	    0.1435
H	   -6.9305	   -5.4343	   -0.1014
C	   -6.8840	   -3.2594	   -0.1284
H	   -7.8719	   -3.1644	   -0.6032
C	   -6.1584	   -2.1052	    0.1899
H	   -6.5550	   -1.1097	   -0.0587
C	   -5.9057	    0.3870	    2.2302
C	   -6.5931	    1.6145	    2.0929
H	   -6.1488	    2.3970	    1.4621
C	   -7.8323	    1.8001	    2.7153
H	   -8.3714	    2.7505	    2.5859
C	   -8.3904	    0.7744	    3.4972
H	   -9.3647	    0.9228	    3.9872
C	   -7.7040	   -0.4415	    3.6532
H	   -8.1320	   -1.2418	    4.2750
C	   -6.4725	   -0.6407	    3.0183
H	   -5.9378	   -1.5923	    3.1482
C	   -1.6657	    2.2945	    0.8301
C	   -2.0218	    3.6375	    1.0069
H	   -3.0311	    3.8638	    1.3771
C	   -1.0847	    4.6241	    0.6809
H	   -1.3335	    5.6887	    0.8018
C	    0.1646	    4.2344	    0.1720
H	    0.9206	    4.9723	   -0.1312
C	    0.4600	    2.8737	    0.0202
H	    1.4145	    2.5257	   -0.4142
N	   -1.9990	   -0.0483	    0.7895
N	   -2.7717	   -1.1089	    0.7599
N	   -3.8048	    1.3177	    1.5127
N	   -0.4334	    1.9305	    0.3751
Br	    3.1286	    1.9097	   -2.2067
Br	    3.9510	   -0.5356	   -1.8622
Br	    4.7472	   -2.9880	   -1.4381
