71

Ti	   -0.0001	   -1.1051	    0.0001
N	    0.9328	   -2.0344	    1.3805
C	    0.8473	   -1.6243	    2.7611
C	    1.4119	   -3.3772	    1.1579
N	   -0.9329	   -2.0347	   -1.3800
C	   -1.4120	   -3.3774	   -1.1567
C	   -0.8475	   -1.6253	   -2.7608
S	    2.2503	   -0.0119	   -1.3653
S	   -2.2504	   -0.0114	    1.3653
O	    1.7801	   -1.4697	   -1.3411
O	    2.3307	    0.6831	   -2.6719
O	   -1.7803	   -1.4692	    1.3415
O	   -2.3309	    0.6839	    2.6716
N	    1.2030	    0.5979	   -0.2907
N	   -1.2030	    0.5981	    0.2905
C	    0.5920	    1.9099	   -0.4868
C	    1.4776	    3.1357	   -0.2552
C	    0.6316	    4.4071	   -0.4396
C	   -0.6310	    4.4072	    0.4394
C	   -1.4772	    3.1359	    0.2549
C	   -0.5918	    1.9100	    0.4866
C	    3.8799	   -0.0073	   -0.6273
C	    4.0466	   -0.5988	    0.6374
C	    5.3161	   -0.5857	    1.2203
C	    6.4223	    0.0013	    0.5616
C	    6.2175	    0.5800	   -0.7063
C	    4.9507	    0.5802	   -1.3100
C	    7.7823	   -0.0006	    1.2108
C	   -3.8800	   -0.0070	    0.6271
C	   -4.0466	   -0.5989	   -0.6375
C	   -5.3160	   -0.5860	   -1.2204
C	   -6.4223	    0.0013	   -0.5619
C	   -6.2176	    0.5803	    0.7058
C	   -4.9508	    0.5807	    1.3096
C	   -7.7822	   -0.0008	   -1.2112
H	    0.4247	   -0.6019	    2.8453
H	    1.8544	   -1.6123	    3.2464
H	    0.1902	   -2.2976	    3.3627
H	    2.4615	   -3.5028	    1.5237
H	    0.7885	   -4.1453	    1.6793
H	    1.4232	   -3.6109	    0.0737
H	   -1.4229	   -3.6107	   -0.0723
H	   -0.7888	   -4.1458	   -1.6779
H	   -2.4617	   -3.5032	   -1.5221
H	   -0.4246	   -0.6031	   -2.8455
H	   -1.8547	   -1.6133	   -3.2459
H	   -0.1908	   -2.2991	   -3.3622
H	    0.1743	    1.9829	   -1.5206
H	    2.3280	    3.1232	   -0.9676
H	    1.9048	    3.0867	    0.7700
H	    0.3300	    4.4815	   -1.5082
H	    1.2440	    5.3080	   -0.2280
H	   -1.2432	    5.3082	    0.2277
H	   -0.3294	    4.4816	    1.5079
H	   -1.9044	    3.0870	   -0.7703
H	   -2.3276	    3.1236	    0.9674
H	   -0.1740	    1.9829	    1.5204
H	    3.1762	   -1.0507	    1.1386
H	    5.4591	   -1.0432	    2.2122
H	    7.0680	    1.0397	   -1.2338
H	    4.7798	    1.0283	   -2.2995
H	    7.7578	    0.5138	    2.1940
H	    8.5390	    0.5041	    0.5803
H	    8.1330	   -1.0364	    1.4014
H	   -3.1762	   -1.0509	   -1.1384
H	   -5.4590	   -1.0437	   -2.2122
H	   -7.0681	    1.0401	    1.2331
H	   -4.7799	    1.0290	    2.2990
H	   -8.1326	   -1.0366	   -1.4022
H	   -7.7578	    0.5139	   -2.1943
H	   -8.5391	    0.5036	   -0.5807
