35

Fe	   -1.3975	   -0.0001	   -0.0290
B	    0.5854	    0.0000	    0.0164
C	   -1.1948	   -1.5678	   -0.8150
O	   -1.0314	   -2.6247	   -1.3034
C	   -3.1785	   -0.0002	   -0.1730
O	   -4.3381	   -0.0003	   -0.2726
C	   -1.3730	    0.0008	    1.7386
O	   -1.3557	    0.0014	    2.9112
C	    1.9031	    0.0003	    1.2466
C	    1.7890	    0.0006	    2.7373
H	    2.8022	    0.0005	    3.1894
H	    1.2451	   -0.8874	    3.1066
C	    1.9028	   -1.1659	    0.3994
C	    1.7343	   -2.5846	    0.8450
H	    1.3580	   -2.6377	    1.8828
H	    2.7055	   -3.1187	    0.8061
H	    1.0156	   -3.1219	    0.1978
C	    1.9311	   -0.7183	   -0.9676
C	    1.8245	   -1.5611	   -2.1982
H	    2.7617	   -1.4850	   -2.7867
H	    0.9908	   -1.2203	   -2.8429
H	    1.6470	   -2.6234	   -1.9571
H	    1.2454	    0.8887	    3.1063
C	    1.9027	    1.1662	    0.3989
C	    1.7340	    2.5850	    0.8439
H	    1.3574	    2.6384	    1.8817
H	    2.7051	    3.1192	    0.8051
H	    1.0154	    3.1220	    0.1964
C	    1.9310	    0.7180	   -0.9679
C	    1.8245	    1.5603	   -2.1988
H	    2.7621	    1.4847	   -2.7867
H	    0.9915	    1.2187	   -2.8439
H	    1.6462	    2.6226	   -1.9582
C	   -1.1950	    1.5671	   -0.8163
O	   -1.0317	    2.6237	   -1.3055
