41

C	   -2.2412	    1.2281	    1.1584
H	   -2.0201	    1.4808	    2.2021
C	   -1.6570	    1.8291	   -0.0015
H	   -0.9220	    2.6399	   -0.0023
C	   -2.2413	    1.2260	   -1.1602
H	   -2.0201	    1.4765	   -2.2044
C	   -3.2014	    0.2464	   -0.7119
H	   -3.8202	   -0.3895	   -1.3565
C	   -3.2013	    0.2478	    0.7120
H	   -3.8198	   -0.3873	    1.3578
C	   -0.9647	   -1.4031	    1.2718
C	   -0.9650	   -1.4042	   -1.2700
C	    1.7915	    1.3091	   -0.7220
C	    1.7914	    1.3104	    0.7201
C	    2.0181	   -0.0411	    1.1658
C	    2.1490	   -0.8812	    0.0009
C	    2.0181	   -0.0431	   -1.1653
C	    1.4951	    2.4597	   -1.6307
H	    1.1868	    3.3631	   -1.0740
H	    0.7012	    2.2097	   -2.3613
H	    2.4033	    2.7213	   -2.2102
C	    1.4950	    2.4627	    1.6265
H	    2.4033	    2.7257	    2.2054
H	    0.7013	    2.2141	    2.3577
H	    1.1864	    3.3649	    1.0680
C	    1.9954	   -0.4803	    2.5948
H	    1.8682	   -1.5724	    2.6938
H	    1.1838	    0.0129	    3.1630
H	    2.9547	   -0.2042	    3.0783
C	    2.2548	   -2.3735	    0.0015
H	    1.7892	   -2.8164	    0.9011
H	    3.3221	   -2.6742	   -0.0087
H	    1.7716	   -2.8182	   -0.8879
C	    1.9958	   -0.4850	   -2.5935
H	    2.9537	   -0.2065	   -3.0783
H	    1.1820	    0.0042	   -3.1621
H	    1.8724	   -1.5778	   -2.6902
B	    0.6696	    0.1206	    0.0003
O	   -0.7645	   -2.1786	    2.1160
O	   -0.7651	   -2.1803	   -2.1138
Fe	   -1.2762	   -0.2518	    0.0004
