64

Hg	    1.1400	   -0.0426	   -0.4807
N	    0.3636	   -1.2255	    1.8714
C	   -0.1186	   -0.4572	    2.8567
C	   -1.1112	   -0.8914	    3.7492
C	   -1.6088	   -2.1931	    3.6017
C	   -1.1181	   -2.9939	    2.5626
C	   -0.1363	   -2.4677	    1.6956
N	    1.6045	   -2.9655	    0.0787
C	    0.3498	   -3.2256	    0.5065
C	   -0.5065	   -4.1057	   -0.1873
C	   -0.0539	   -4.7043	   -1.3696
C	    1.2406	   -4.4208	   -1.8181
C	    2.0287	   -3.5474	   -1.0532
N	    1.7507	    2.3897	   -0.5530
C	    0.9499	    3.3459	   -1.0419
C	    1.2636	    4.7076	   -0.9084
C	    2.4414	    5.0587	   -0.2345
C	    3.2591	    4.0501	    0.2916
C	    2.8762	    2.7042	    0.1144
N	    3.0864	    0.3356	    0.6554
C	    3.6566	    1.5639	    0.6839
C	    4.9298	    1.7289	    1.2669
C	    5.5821	    0.6249	    1.8276
C	    4.9551	   -0.6297	    1.8016
C	    3.6973	   -0.7349	    1.1959
O	    1.1550	   -1.1837	   -2.4629
O	   -0.2276	   -2.4163	   -3.7296
C	   -0.0203	   -1.5638	   -2.8600
C	   -1.2702	   -0.8802	   -2.2218
N	   -1.0216	   -0.3211	   -0.9005
S	   -1.8149	    1.0399	   -0.4600
O	   -2.1431	    1.9336	   -1.6092
O	   -1.1009	    1.6041	    0.7219
C	   -3.4180	    0.4146	    0.1591
C	   -3.4951	   -0.9432	    0.5067
C	   -4.7022	   -1.5029	    0.9498
C	   -5.8616	   -0.7146	    1.0189
C	   -5.8033	    0.6381	    0.6598
C	   -4.5826	    1.1985	    0.2595
N	   -4.5799	    2.6596	   -0.0017
O	   -3.6099	    3.2942	    0.3964
O	   -5.5774	    3.1266	   -0.5505
H	    0.2867	    0.5659	    2.9193
H	   -1.4847	   -0.2180	    4.5339
H	   -2.3777	   -2.5816	    4.2867
H	   -1.4816	   -4.0225	    2.4268
H	   -1.5360	   -4.2702	    0.1616
H	   -0.7210	   -5.3501	   -1.9586
H	    1.6184	   -4.8229	   -2.7673
H	    3.0475	   -3.2865	   -1.3847
H	    0.0176	    3.0125	   -1.5305
H	    0.5858	    5.4696	   -1.3184
H	    2.7181	    6.1155	   -0.1028
H	    4.1670	    4.3152	    0.8497
H	    5.4116	    2.7151	    1.2759
H	    6.5770	    0.7463	    2.2815
H	    5.4301	   -1.5201	    2.2372
H	    3.1305	   -1.6844	    1.1130
H	   -1.6048	   -0.1006	   -2.9442
H	   -2.0591	   -1.6641	   -2.1912
H	   -2.5793	   -1.5444	    0.4046
H	   -4.7377	   -2.5670	    1.2285
H	   -6.8161	   -1.1514	    1.3480
H	   -6.6905	    1.2857	    0.6860
