83

Pd	    0.1660	   -0.9051	    0.4335
P	   -2.0041	   -0.4763	    0.1416
F	    2.1925	   -1.7729	    0.4797
F	    2.3263	   -4.1225	    0.4458
F	    1.5413	   -3.0025	   -1.4208
C	   -3.2332	    2.0454	   -0.4735
H	   -4.1924	    1.5235	   -0.3778
C	    2.6167	    1.2091	    1.0921
H	    3.0949	    1.2491	    2.0799
C	   -0.8264	    3.4149	   -0.7245
H	    0.1303	    3.9511	   -0.8134
C	   -3.2450	    3.4161	   -0.7575
H	   -4.2041	    3.9418	   -0.8776
C	    1.2178	   -0.1101	   -3.6467
H	    2.2675	   -0.0015	   -3.9887
H	    0.5931	   -0.2225	   -4.5561
H	    1.1586	   -1.0426	   -3.0524
C	   -2.7591	    0.4939	    2.6619
H	   -1.6895	    0.4418	    2.9324
H	   -3.3464	    0.3766	    3.5968
H	   -2.9732	    1.4989	    2.2494
C	   -2.0319	    4.1072	   -0.8842
H	   -2.0231	    5.1856	   -1.1034
C	    2.7386	    0.8724	   -1.2839
H	    3.3331	    0.6285	   -2.1776
C	    1.3728	    1.1291	   -1.4361
C	   -3.9586	   -0.6417	   -2.0081
H	   -4.8105	   -0.4753	   -1.3223
H	   -4.3375	   -1.2463	   -2.8591
H	   -3.6352	    0.3342	   -2.4166
C	   -2.7961	   -1.4097	   -1.3567
C	   -2.8121	   -1.9791	    2.3703
H	   -3.0414	   -2.8524	    1.7330
H	   -3.4163	   -2.0691	    3.2976
H	   -1.7420	   -2.0323	    2.6453
C	    4.8728	    0.5752	    0.0387
H	    5.3503	    1.1366	   -0.7973
C	   -2.0241	    1.3305	   -0.3093
C	    3.3889	    0.9033	   -0.0335
C	    5.1113	   -0.9265	   -0.2207
H	    4.6394	   -1.5398	    0.5709
H	    6.1985	   -1.1446	   -0.2498
H	    4.6642	   -1.2528	   -1.1798
C	    0.7679	    1.1168	   -2.8337
H	   -0.3339	    1.0680	   -2.7089
C	   -3.2843	   -2.8091	   -0.9407
H	   -2.4919	   -3.4019	   -0.4494
H	   -3.5829	   -3.3572	   -1.8588
H	   -4.1668	   -2.7823	   -0.2747
C	    1.2328	    1.4851	    1.0082
C	   -3.1415	   -0.6358	    1.6927
C	   -4.6516	   -0.5576	    1.4092
H	   -4.9607	    0.4223	    1.0000
H	   -5.1919	   -0.6850	    2.3713
H	   -5.0090	   -1.3523	    0.7297
C	    0.5154	    1.9940	    2.2541
H	   -0.5692	    1.9964	    2.0310
C	    0.9209	    3.4489	    2.5518
H	    2.0079	    3.5239	    2.7612
H	    0.3750	    3.8348	    3.4372
H	    0.6959	    4.1147	    1.6951
C	   -1.6717	   -1.5633	   -2.3945
H	   -1.3327	   -0.5772	   -2.7607
H	   -2.0631	   -2.1251	   -3.2690
H	   -0.7899	   -2.1037	   -1.9982
C	   -0.7916	    2.0309	   -0.4367
C	    0.7444	    1.0897	    3.4746
H	    0.4967	    0.0338	    3.2377
H	    0.1178	    1.4173	    4.3287
H	    1.7997	    1.1137	    3.8140
C	    5.5460	    1.0178	    1.3415
H	    5.3792	    2.0936	    1.5532
H	    6.6394	    0.8467	    1.2859
H	    5.1705	    0.4344	    2.2076
C	    1.0799	    2.4208	   -3.5907
H	    2.1756	    2.5554	   -3.7035
H	    0.6819	    3.3102	   -3.0642
H	    0.6340	    2.3978	   -4.6063
C	    0.0612	   -2.9486	    0.6324
H	   -0.0164	   -3.1370	    1.7237
H	   -0.7700	   -3.4498	    0.1057
C	    0.5819	    1.4299	   -0.2707
B	    1.5435	   -3.0834	   -0.0165
