71

Zr	    0.4499	   -0.6065	   -0.4125
Cl	    0.4559	   -2.8492	   -1.3726
Cl	    2.7646	   -0.1500	   -0.9899
B	   -0.9664	   -0.0988	    1.9869
B	    0.1510	    1.8952	   -1.4944
C	    0.4048	    0.5958	    1.9212
C	    1.6024	   -0.1450	    1.8885
C	    1.6391	   -1.5680	    1.7778
C	    0.3950	   -2.2422	    1.6325
C	   -0.8556	   -1.5864	    1.6440
C	   -2.3225	    0.6391	    2.3062
C	   -2.3518	    2.0061	    2.6777
C	   -3.5546	    2.6717	    2.9564
C	   -4.7741	    1.9801	    2.8736
C	   -4.7773	    0.6200	    2.5230
C	   -3.5676	   -0.0351	    2.2498
C	    2.9390	   -2.3773	    1.9606
C	    2.7793	   -3.1714	    3.2811
C	    3.1741	   -3.3639	    0.7988
C	    4.1729	   -1.4664	    2.0876
C	   -1.0462	    1.5094	   -0.6296
C	   -1.8896	    0.4204	   -0.9498
C	   -1.6595	   -0.4466	   -2.0493
C	   -0.5018	   -0.1956	   -2.8540
C	    0.3835	    0.8691	   -2.6159
C	    1.0982	    3.1075	   -1.1633
C	    0.7628	    4.0431	   -0.1528
C	    1.6019	    5.1208	    0.1653
C	    2.8120	    5.2930	   -0.5262
C	    3.1699	    4.3831	   -1.5351
C	    2.3230	    3.3102	   -1.8449
C	   -2.7345	   -1.4792	   -2.4421
C	   -2.2864	   -2.3782	   -3.6078
C	   -3.1292	   -2.3729	   -1.2479
C	   -3.9731	   -0.6664	   -2.8967
H	    0.5346	    1.6911	    1.9532
H	    2.5605	    0.3927	    1.9093
H	    0.4243	   -3.3313	    1.4740
H	   -1.7276	   -2.2386	    1.4710
H	   -1.4056	    2.5654	    2.7572
H	   -3.5429	    3.7351	    3.2414
H	   -5.7208	    2.4989	    3.0889
H	   -5.7283	    0.0679	    2.4666
H	   -3.5923	   -1.1055	    1.9894
H	    1.9369	   -3.8901	    3.2295
H	    2.5959	   -2.4919	    4.1382
H	    3.7031	   -3.7489	    3.4904
H	    2.3213	   -4.0548	    0.6525
H	    4.0728	   -3.9783	    1.0104
H	    3.3336	   -2.8228	   -0.1532
H	    4.3148	   -0.8487	    1.1796
H	    5.0783	   -2.0918	    2.2190
H	    4.1064	   -0.7952	    2.9679
H	   -1.3500	    2.0745	    0.2647
H	   -2.7674	    0.2300	   -0.3117
H	   -0.2874	   -0.8979	   -3.6722
H	    1.2625	    0.9074	   -3.2798
H	   -0.1865	    3.9309	    0.3959
H	    1.3121	    5.8319	    0.9546
H	    3.4760	    6.1360	   -0.2794
H	    4.1183	    4.5107	   -2.0799
H	    2.6305	    2.5990	   -2.6269
H	   -2.1008	   -1.7948	   -4.5321
H	   -3.0874	   -3.1090	   -3.8376
H	   -1.3686	   -2.9432	   -3.3548
H	   -3.9530	   -3.0533	   -1.5439
H	   -3.4887	   -1.7772	   -0.3855
H	   -2.2704	   -2.9889	   -0.9186
H	   -3.7212	    0.0056	   -3.7420
H	   -4.3788	   -0.0428	   -2.0750
H	   -4.7767	   -1.3543	   -3.2314
