66

Hf	    0.6270	   -0.3078	   -0.0281
B	   -1.8635	   -0.9640	   -0.5933
N	   -3.1093	   -0.5353	   -0.0176
O	   -0.4502	    0.6696	    1.6976
C	    2.7219	    1.0176	    0.5529
C	    2.6859	   -0.1080	    1.4381
C	    2.8140	   -1.3060	    0.6495
C	    2.9623	   -0.9165	   -0.7312
C	    2.8588	    0.5152	   -0.7944
C	    2.8213	    2.4581	    0.9648
C	    2.5460	   -0.0335	    2.9314
C	    2.9183	   -2.7089	    1.1788
C	    3.3553	   -1.8196	   -1.8622
C	    3.0183	    1.3619	   -2.0260
C	   -0.9354	   -2.1306	   -0.0935
C	    0.0275	   -2.3714	   -1.1433
C	   -0.0095	   -1.3385	   -2.1163
C	   -1.0289	   -0.3602	   -1.7887
C	   -4.0350	    0.3907	   -0.6905
C	   -3.5204	    1.8361	   -0.6949
C	   -4.4171	   -0.0937	   -2.0979
C	   -3.5982	   -1.1603	    1.2196
C	   -4.8007	   -2.0876	    0.9785
C	   -3.8768	   -0.1298	    2.3259
C	   -0.1619	    3.5986	   -1.3753
C	   -0.4163	    3.9282	   -0.0967
C	   -0.5882	    2.9663	    1.0479
C	   -0.2158	    1.5348	    0.7988
H	    3.8870	    2.7725	    1.0164
H	    2.3105	    3.1369	    0.2545
H	    2.3879	    2.6269	    1.9697
H	    3.4774	    0.3441	    3.4049
H	    1.7226	    0.6445	    3.2381
H	    2.3335	   -1.0268	    3.3715
H	    3.9705	   -2.9632	    1.4336
H	    2.3171	   -2.8542	    2.0979
H	    2.5722	   -3.4550	    0.4376
H	    4.4606	   -1.9403	   -1.8948
H	    2.9194	   -2.8324	   -1.7645
H	    3.0441	   -1.4148	   -2.8443
H	    4.0868	    1.6130	   -2.2067
H	    2.6482	    0.8462	   -2.9344
H	    2.4681	    2.3193	   -1.9375
H	   -1.0804	   -2.8575	    0.7206
H	    0.7465	   -3.2046	   -1.1645
H	    0.6745	   -1.2831	   -2.9772
H	   -1.2493	    0.4775	   -2.4663
H	   -4.9732	    0.3922	   -0.0950
H	   -3.3980	    2.2053	    0.3419
H	   -2.5387	    1.9160	   -1.1996
H	   -4.2292	    2.5110	   -1.2173
H	   -4.8448	   -1.1145	   -2.0523
H	   -5.1684	    0.5805	   -2.5582
H	   -3.5313	   -0.1319	   -2.7614
H	   -2.7644	   -1.7939	    1.5792
H	   -4.5525	   -2.8524	    0.2160
H	   -5.0918	   -2.6081	    1.9139
H	   -5.6908	   -1.5261	    0.6247
H	   -2.9693	    0.4744	    2.5225
H	   -4.7057	    0.5569	    2.0538
H	   -4.1704	   -0.6385	    3.2670
H	   -0.0640	    4.3719	   -2.1526
H	   -0.0587	    2.5448	   -1.6796
H	   -0.5321	    4.9943	    0.1690
H	    0.0136	    3.2994	    1.9263
H	   -1.6368	    2.9855	    1.4280
