73

Hf	   -1.2176	   -0.2045	   -0.4075
Cl	   -1.8466	    0.5212	   -2.6538
C	   -3.4666	    0.4504	    0.5440
C	   -2.7451	   -0.1367	    1.6393
C	   -1.6267	    0.7120	    1.9344
C	   -1.6955	    1.8578	    1.0646
C	   -2.8293	    1.6958	    0.2081
C	   -4.7256	   -0.0734	   -0.0858
C	   -3.1982	   -1.3018	    2.4680
C	   -0.6461	    0.5382	    3.0579
C	   -0.8449	    3.0887	    1.1629
C	   -3.3535	    2.7128	   -0.7595
B	    0.6768	   -2.0145	   -0.2475
C	   -0.4490	   -2.3039	    0.7335
C	   -1.6269	   -2.5851	   -0.0493
C	   -1.3319	   -2.4605	   -1.4410
C	    0.0272	   -2.0627	   -1.6315
N	    2.1717	   -1.6927	    0.0966
C	    2.4450	   -1.7031	    1.5898
C	    2.4944	   -3.1089	    2.1801
C	    3.6873	   -0.8815	    1.9337
C	    3.2149	   -2.4011	   -0.7554
C	    2.8488	   -3.8518	   -1.0662
C	    3.4685	   -1.5857	   -2.0234
C	    0.7597	    0.8053	   -0.2395
C	    1.8490	    1.4264	   -0.2066
Si	    3.1973	    2.6844	   -0.1636
C	    2.6634	    4.1515	   -1.2284
C	    4.8181	    1.9637	   -0.8327
C	    3.4529	    3.2424	    1.6297
H	   -4.8364	   -1.1660	    0.0583
H	   -4.7407	    0.1220	   -1.1763
H	   -5.6273	    0.4107	    0.3494
H	   -3.7004	   -0.9384	    3.3909
H	   -2.3614	   -1.9524	    2.7894
H	   -3.9292	   -1.9347	    1.9298
H	   -0.5758	   -0.5184	    3.3820
H	   -0.9424	    1.1342	    3.9492
H	    0.3689	    0.8720	    2.7618
H	   -1.3496	    3.8583	    1.7871
H	   -0.6516	    3.5369	    0.1689
H	    0.1378	    2.8695	    1.6197
H	   -2.5494	    3.3766	   -1.1306
H	   -4.1216	    3.3525	   -0.2719
H	   -3.8150	    2.2368	   -1.6453
H	   -0.4749	   -2.3481	    1.8318
H	   -2.6017	   -2.9010	    0.3461
H	   -2.0740	   -2.5897	   -2.2420
H	    0.4037	   -1.8226	   -2.6357
H	    2.2173	   -0.6663	   -0.1491
H	    1.5652	   -1.1719	    2.0036
H	    2.5025	   -3.0360	    3.2856
H	    1.6112	   -3.7036	    1.8801
H	    3.4143	   -3.6508	    1.8806
H	    3.7752	   -0.7938	    3.0343
H	    4.6242	   -1.3490	    1.5676
H	    3.6137	    0.1415	    1.5174
H	    3.6914	   -4.3272	   -1.6068
H	    2.6525	   -4.4421	   -0.1532
H	    1.9450	   -3.9029	   -1.7021
H	    4.2802	   -2.0551	   -2.6128
H	    2.5637	   -1.5414	   -2.6587
H	    3.7706	   -0.5473	   -1.7852
H	    4.1463	   -2.3918	   -0.1521
H	    3.4392	    4.9448	   -1.2347
H	    2.4824	    3.8295	   -2.2736
H	    1.7205	    4.5868	   -0.8404
H	    5.6269	    2.7217	   -0.7791
H	    5.1472	    1.0784	   -0.2516
H	    4.7096	    1.6596	   -1.8937
H	    4.2428	    4.0199	    1.6872
H	    2.5172	    3.6716	    2.0420
H	    3.7567	    2.3994	    2.2827
