64

Hf	   -1.1546	   -0.0253	   -0.4351
Cl	   -3.1776	    1.3812	   -0.3882
C	   -1.7498	   -0.5991	    1.9966
C	   -0.3820	   -0.9888	    1.7722
C	   -0.3767	   -2.0756	    0.8328
C	   -1.7412	   -2.3343	    0.4492
C	   -2.5821	   -1.4271	    1.1740
C	   -2.2877	    0.3673	    3.0089
C	    0.8455	   -0.5225	    2.5022
C	    0.8219	   -2.9276	    0.5343
C	   -2.2301	   -3.4796	   -0.3887
C	   -4.0812	   -1.4273	    1.1926
B	    0.8382	   -0.3135	   -2.0290
C	    0.0196	    0.9341	   -2.4410
C	   -1.2843	    0.5118	   -2.8486
C	   -1.4108	   -0.9021	   -2.6772
C	   -0.1668	   -1.4522	   -2.2009
C	    2.2058	   -0.3495	   -1.3418
C	    3.3004	   -0.3666	   -0.7493
Si	    4.9303	   -0.3601	    0.0977
C	    4.6756	   -0.6623	    1.9536
C	    6.0221	   -1.7267	   -0.6213
C	    5.7458	    1.3311	   -0.1527
P	   -0.0235	    2.3885	    0.3389
C	   -0.4414	    3.0387	    2.0188
C	   -0.6460	    3.7964	   -0.6822
C	    1.8040	    2.6056	    0.2946
H	   -2.9200	   -0.1677	    3.7491
H	   -1.4843	    0.8750	    3.5725
H	   -2.9290	    1.1400	    2.5365
H	    1.1620	   -1.2778	    3.2543
H	    1.7029	   -0.3837	    1.8135
H	    0.6787	    0.4257	    3.0474
H	    1.1149	   -3.4955	    1.4445
H	    0.6128	   -3.6682	   -0.2595
H	    1.6974	   -2.3297	    0.2125
H	   -2.4432	   -4.3654	    0.2483
H	   -3.1672	   -3.2296	   -0.9236
H	   -1.4874	   -3.7911	   -1.1466
H	   -4.4564	   -2.0181	    2.0570
H	   -4.4888	   -0.4021	    1.2773
H	   -4.5056	   -1.8794	    0.2757
H	    0.3341	    1.9836	   -2.5202
H	   -2.0938	    1.1650	   -3.2027
H	   -2.3201	   -1.4734	   -2.9219
H	   -0.0471	   -2.5267	   -2.0160
H	    5.6531	   -0.7187	    2.4762
H	    4.0893	    0.1563	    2.4189
H	    4.1347	   -1.6138	    2.1322
H	    7.0171	   -1.7397	   -0.1298
H	    5.5518	   -2.7207	   -0.4791
H	    6.1735	   -1.5760	   -1.7091
H	    6.7317	    1.3763	    0.3547
H	    5.9016	    1.5363	   -1.2311
H	    5.1095	    2.1415	    0.2584
H	   -0.0382	    4.0648	    2.1348
H	   -1.5408	    3.0604	    2.1362
H	   -0.0108	    2.3919	    2.8047
H	   -0.2654	    4.7528	   -0.2711
H	   -0.3223	    3.6912	   -1.7329
H	   -1.7520	    3.7794	   -0.6539
H	    2.0707	    3.6521	    0.5452
H	    2.2732	    1.9149	    1.0205
H	    2.1898	    2.3352	   -0.7057
