81

Ti	   -0.0000	   -0.0000	    0.0014
N	    1.4606	   -0.8557	    0.8567
N	    1.4595	    0.8556	   -0.8557
B	    2.2872	   -0.0000	   -0.0001
C	    3.8726	    0.0002	   -0.0009
C	    4.6038	    0.8550	    0.8545
C	    6.0080	    0.8578	    0.8563
C	    6.7150	    0.0010	   -0.0021
C	    6.0077	   -0.8561	   -0.8598
C	    4.6036	   -0.8541	   -0.8568
C	    1.7930	   -1.8627	    1.8632
C	    2.5951	   -3.0180	    1.2316
C	    2.5941	   -1.2313	    3.0193
C	    0.4570	   -2.4086	    2.4079
C	    1.7905	    1.8632	   -1.8620
C	    2.5913	    1.2328	   -3.0189
C	    2.5922	    3.0189	   -1.2305
C	    0.4537	    2.4083	   -2.4058
H	    4.0640	    1.5337	    1.5343
H	    6.5537	    1.5339	    1.5327
H	    7.8157	    0.0013	   -0.0026
H	    6.5532	   -1.5319	   -1.5368
H	    4.0636	   -1.5331	   -1.5362
H	    3.5729	   -2.6628	    0.8538
H	    2.7826	   -3.8184	    1.9763
H	    2.0322	   -3.4573	    0.3830
H	    3.5717	   -0.8526	    2.6647
H	    2.0303	   -0.3834	    3.4588
H	    2.7818	   -1.9763	    3.8193
H	   -0.1400	   -2.8565	    1.5865
H	    0.6237	   -3.1836	    3.1827
H	   -0.1408	   -1.5877	    2.8557
H	    3.5694	    0.8546	   -2.6650
H	    2.0278	    0.3846	   -3.4583
H	    2.7780	    1.9782	   -3.8187
H	    3.5704	    2.6642	   -0.8534
H	    2.7787	    3.8196	   -1.9750
H	    2.0294	    3.4574	   -0.3814
H	   -0.1438	    1.5872	   -2.8535
H	   -0.1431	    2.8554	   -1.5839
H	    0.6195	    3.1837	   -3.1804
N	   -1.4606	    0.8558	    0.8566
N	   -1.4595	   -0.8557	   -0.8556
B	   -2.2872	    0.0000	   -0.0001
C	   -1.7930	    1.8630	    1.8629
C	   -1.7905	   -1.8635	   -1.8618
C	   -3.8726	   -0.0002	   -0.0009
C	   -2.5951	    3.0182	    1.2313
C	   -2.5941	    1.2317	    3.0191
C	   -0.4569	    2.4089	    2.4076
C	   -2.5913	   -1.2331	   -3.0187
C	   -2.5922	   -3.0190	   -1.2302
C	   -0.4537	   -2.4086	   -2.4055
C	   -4.6038	   -0.8548	    0.8547
C	   -4.6036	    0.8539	   -0.8571
H	   -3.5729	    2.6629	    0.8535
H	   -2.7826	    3.8186	    1.9758
H	   -2.0322	    3.4573	    0.3826
H	   -3.5717	    0.8529	    2.6645
H	   -2.0303	    0.3838	    3.4587
H	   -2.7818	    1.9767	    3.8190
H	    0.1400	    2.8566	    1.5862
H	   -0.6237	    3.1839	    3.1824
H	    0.1408	    1.5880	    2.8555
H	   -3.5694	   -0.8549	   -2.6649
H	   -2.0279	   -0.3850	   -3.4583
H	   -2.7780	   -1.9787	   -3.8184
H	   -3.5704	   -2.6643	   -0.8531
H	   -2.7786	   -3.8198	   -1.9745
H	   -2.0294	   -3.4574	   -0.3810
H	    0.1437	   -1.5875	   -2.8533
H	    0.1431	   -2.8556	   -1.5835
H	   -0.6195	   -3.1841	   -3.1800
C	   -6.0080	   -0.8576	    0.8565
H	   -4.0640	   -1.5332	    1.5347
C	   -6.0077	    0.8559	   -0.8601
H	   -4.0636	    1.5327	   -1.5366
C	   -6.7150	   -0.0010	   -0.0021
H	   -6.5537	   -1.5335	    1.5332
H	   -6.5532	    1.5315	   -1.5372
H	   -7.8157	   -0.0013	   -0.0026
