67

Zn	    2.1107	    0.3178	   -0.0691
S	   -0.2483	   -1.1025	   -0.4943
O	    0.2878	   -2.5072	   -0.5873
O	    0.0409	   -0.2119	   -1.6716
N	    3.0727	   -0.4261	    1.7843
N	    2.9984	   -1.4983	   -0.8715
N	    2.6974	    1.1063	   -1.9758
N	    2.9374	    2.2214	    0.6350
N	    0.4118	   -0.2859	    0.7774
N	   -6.5289	    0.6532	    0.2057
C	    3.6648	   -1.7442	    1.4669
C	    4.1220	   -1.8369	    0.0052
C	    3.2648	   -1.2722	   -2.2966
C	    3.6901	    0.1788	   -2.5509
C	    3.1402	    2.4979	   -1.7994
C	    3.8395	    2.6641	   -0.4437
C	    3.5462	    2.0211	    1.9673
C	    4.0693	    0.5885	    2.1575
C	    1.9074	   -0.5087	    2.7002
C	    0.6536	   -1.0555	    1.9992
C	   -2.0138	   -1.2343	   -0.2431
C	   -2.5232	   -2.5221	   -0.1198
C	   -3.8965	   -2.7026	    0.1608
C	   -4.7340	   -1.5998	    0.2550
C	   -5.1450	    0.8666	    0.1297
C	   -4.5861	    2.1503	    0.1628
C	   -3.1926	    2.3383	    0.0229
C	   -2.3271	    1.2702	   -0.1610
C	   -2.8340	   -0.0601	   -0.1303
C	   -4.2517	   -0.2746	    0.0622
C	   -7.3501	    1.7089	    0.7686
C	   -7.1860	   -0.0294	   -0.9087
H	    4.5064	   -1.9883	    2.1529
H	    2.8850	   -2.5131	    1.6370
H	    4.5281	   -2.8561	   -0.1873
H	    4.9559	   -1.1268	   -0.1881
H	    2.2102	   -2.1696	   -0.7630
H	    4.0321	   -1.9655	   -2.7063
H	    2.3149	   -1.4730	   -2.8322
H	    3.8331	    0.3491	   -3.6404
H	    4.6693	    0.3821	   -2.0666
H	    1.8082	    1.0418	   -2.4934
H	    3.8132	    2.8359	   -2.6173
H	    2.2432	    3.1506	   -1.8340
H	    4.1737	    3.7166	   -0.3106
H	    4.7529	    2.0333	   -0.4073
H	    2.1602	    2.8901	    0.7176
H	    4.3740	    2.7392	    2.1554
H	    2.7669	    2.2413	    2.7225
H	    4.4176	    0.4702	    3.2108
H	    4.9615	    0.4322	    1.5155
H	    2.1470	   -1.1185	    3.6010
H	    1.6874	    0.5174	    3.0545
H	   -0.1938	   -0.9754	    2.7171
H	    0.7780	   -2.1418	    1.7791
H	   -1.8416	   -3.3782	   -0.2181
H	   -4.2911	   -3.7167	    0.3195
H	   -5.7920	   -1.7358	    0.5173
H	   -5.2375	    3.0303	    0.2440
H	   -2.7965	    3.3657	    0.0193
H	   -1.2556	    1.4367	   -0.3163
H	   -8.3463	    1.2934	    1.0217
H	   -6.8927	    2.0981	    1.6983
H	   -7.5160	    2.5653	    0.0683
H	   -8.0871	   -0.5723	   -0.5547
H	   -7.5092	    0.6979	   -1.6926
H	   -6.5057	   -0.7558	   -1.3863
