35

Cl	    2.5457	   -0.0000	    1.8365
Zr	    0.9721	   -0.0000	    0.0000
C	   -0.6960	    1.5652	    1.2781
C	    0.5100	    2.2893	    1.2308
C	    1.1460	    2.6016	   -0.0000
C	   -0.6958	   -1.5652	    1.2781
C	    0.5103	   -2.2891	    1.2308
C	    1.1463	   -2.6012	   -0.0000
C	   -2.5274	   -0.0001	   -0.0000
C	   -3.8814	   -0.0001	   -0.0000
C	   -4.6930	    1.2734	    0.0000
C	   -4.6929	   -1.2737	    0.0000
B	   -1.4573	    1.1533	   -0.0000
B	   -1.4573	   -1.1534	   -0.0000
H	   -1.0565	    1.2812	    2.2815
H	    1.0341	    2.5615	    2.1606
H	    2.1206	    3.1088	   -0.0000
H	   -1.0563	   -1.2812	    2.2815
H	    1.0345	   -2.5611	    2.1606
H	    2.1211	   -3.1081	   -0.0000
H	   -4.0481	    2.1738	    0.0000
H	   -5.3616	    1.3244	    0.8880
H	   -5.3615	   -1.3247	    0.8880
H	   -4.0480	   -2.1740	    0.0000
Cl	    2.5457	   -0.0000	   -1.8365
C	   -0.6960	    1.5652	   -1.2781
C	    0.5100	    2.2893	   -1.2308
H	    1.0341	    2.5615	   -2.1606
C	   -0.6958	   -1.5652	   -1.2781
C	    0.5103	   -2.2891	   -1.2308
H	    1.0345	   -2.5611	   -2.1606
H	   -1.0565	    1.2812	   -2.2815
H	   -5.3616	    1.3244	   -0.8880
H	   -5.3615	   -1.3247	   -0.8880
H	   -1.0563	   -1.2812	   -2.2815
