67

Y	   -0.0919	   -0.0747	   -0.0004
O	    1.5109	   -0.7442	   -1.4186
O	    1.5096	   -0.7447	    1.4189
C	    3.2568	   -1.5448	    0.0008
H	    4.2604	   -1.9902	    0.0011
C	    2.6670	   -1.2678	    1.2586
C	    2.6679	   -1.2677	   -1.2575
C	    3.4324	   -1.5781	   -2.5241
H	    2.7991	   -2.1937	   -3.1946
H	    4.3899	   -2.0976	   -2.3374
H	    3.6346	   -0.6282	   -3.0616
C	    3.4307	   -1.5778	    2.5258
H	    4.3883	   -2.0974	    2.3398
H	    2.7971	   -2.1930	    3.1962
H	    3.6328	   -0.6277	    3.0629
N	    2.8936	    2.2344	    0.0003
B	    1.4482	    2.2836	    0.0003
C	   -0.8149	    2.2420	    1.2481
C	    0.5928	    2.2232	    1.2872
H	    1.0311	    2.1850	    2.3002
C	   -1.5077	    2.2001	    0.0001
H	   -2.6062	    2.1786	    0.0000
C	   -0.8148	    2.2425	   -1.2478
C	    0.5929	    2.2235	   -1.2867
H	    1.0314	    2.1858	   -2.2997
C	   -1.6271	    2.2879	    2.5242
H	   -1.1080	    1.7741	    3.3575
H	   -2.6274	    1.8327	    2.3966
H	   -1.7814	    3.3436	    2.8344
C	   -1.6267	    2.2891	   -2.5241
H	   -1.7775	    3.3447	   -2.8360
H	   -2.6285	    1.8373	   -2.3958
H	   -1.1092	    1.7723	   -3.3565
C	    3.6967	    2.1992	    1.2009
H	    3.0630	    2.2126	    2.1054
H	    4.3934	    3.0702	    1.2593
H	    4.3295	    1.2793	    1.2407
C	    3.6968	    2.1989	   -1.2001
H	    3.0632	    2.2111	   -2.1047
H	    4.3302	    1.2792	   -1.2392
H	    4.3930	    3.0702	   -1.2592
N	   -4.1480	   -0.0198	    0.0009
B	   -2.9274	   -0.7929	    0.0002
C	   -2.1929	   -1.2460	    1.2893
H	   -2.4858	   -0.9204	    2.3041
C	   -1.1942	   -2.2419	    1.2466
C	   -0.6854	   -2.7066	   -0.0016
H	    0.1203	   -3.4566	   -0.0022
C	   -1.1948	   -2.2404	   -1.2489
C	   -2.1934	   -1.2444	   -1.2899
H	   -2.4869	   -0.9176	   -2.3042
C	   -0.6298	   -2.8291	    2.5205
H	    0.3783	   -3.2599	    2.3668
H	   -1.2921	   -3.6443	    2.8817
H	   -0.5668	   -2.0714	    3.3258
C	   -0.6310	   -2.8258	   -2.5238
H	   -1.2937	   -3.6402	   -2.8862
H	    0.3770	   -3.2574	   -2.3711
H	   -0.5678	   -2.0670	   -3.3281
C	   -4.8237	    0.4124	   -1.2011
H	   -4.3460	   -0.0152	   -2.1010
H	   -4.8253	    1.5255	   -1.3099
H	   -5.8932	    0.0934	   -1.2030
C	   -4.8235	    0.4105	    1.2037
H	   -4.3453	   -0.0179	    2.1029
H	   -5.8928	    0.0908	    1.2056
H	   -4.8259	    1.5234	    1.3138
