45

Zn	   -1.7604	    0.8047	   -0.2260
S	   -3.9166	    1.4284	    0.6005
S	   -3.7363	   -0.7064	    0.8344
O	   -2.1830	   -0.7999	    1.0265
O	   -4.1017	   -1.3009	   -0.5150
O	   -4.4901	   -1.2361	    1.9827
N	   -0.9767	   -2.2265	   -1.1543
N	    0.4108	    0.1349	   -0.3573
N	   -0.6864	    2.5936	   -0.1872
N	    2.2973	   -1.2798	   -0.0777
N	    2.5872	    1.0813	   -0.0948
N	    5.2905	    0.7566	    0.2287
C	   -1.8205	   -3.2659	   -1.1730
H	   -2.7391	   -3.1406	   -1.7668
C	   -1.5836	   -4.4444	   -0.4466
H	   -2.3165	   -5.2633	   -0.4764
C	   -0.4097	   -4.5440	    0.3103
H	   -0.1885	   -5.4537	    0.8880
C	    0.4713	   -3.4555	    0.3372
H	    1.3970	   -3.4677	    0.9278
C	    0.1279	   -2.3005	   -0.3891
C	    0.9860	   -1.0900	   -0.2837
C	    3.0689	   -0.1727	   -0.0172
C	    1.2620	    1.1800	   -0.2263
C	    0.6638	    2.5372	   -0.1907
C	    1.4590	    3.6950	   -0.1240
H	    2.5520	    3.5809	   -0.1105
C	    0.8157	    4.9371	   -0.0709
H	    1.4052	    5.8649	   -0.0223
C	   -0.5888	    4.9850	   -0.0725
H	   -1.1286	    5.9413	   -0.0276
C	   -1.3067	    3.7817	   -0.1221
H	   -2.4090	    3.7424	   -0.0972
C	    4.5373	   -0.3587	    0.1454
C	    5.0774	   -1.6617	    0.2035
H	    4.4053	   -2.5266	    0.1220
C	    6.4615	   -1.8029	    0.3599
H	    6.9189	   -2.8025	    0.4098
C	    7.2492	   -0.6470	    0.4493
H	    8.3408	   -0.7071	    0.5727
C	    6.6098	    0.6060	    0.3758
H	    7.2049	    1.5347	    0.4414
O	   -2.2655	   -0.0399	   -2.0341
H	   -3.1362	   -0.4248	   -1.6936
H	   -1.6671	   -0.8475	   -1.9200
