68

Hf	   -0.6202	    0.2259	   -0.1947
B	    1.2251	   -0.1382	   -2.2199
C	   -0.1559	    0.2284	   -2.7875
C	   -1.2864	   -0.5827	   -2.5571
C	   -1.2268	   -1.7243	   -1.7122
C	   -0.0039	   -2.0936	   -1.0939
C	    1.1737	   -1.3340	   -1.2625
C	    2.5676	    0.6329	   -2.6372
C	    3.7473	    0.4858	   -1.7111
C	    4.4491	   -0.7372	   -1.6181
C	    5.5332	   -0.8904	   -0.7425
C	    5.9499	    0.1809	    0.0636
C	    5.2672	    1.4042	   -0.0168
C	    4.1800	    1.5512	   -0.8924
C	    0.7446	    2.0652	   -0.1558
C	   -0.3526	    2.7883	    0.4998
C	   -1.3137	    3.5125	   -0.2673
C	   -2.4548	    4.0626	    0.3230
C	   -2.6965	    3.9013	    1.6998
C	   -1.7637	    3.2032	    2.4826
C	   -0.6129	    2.6547	    1.8968
C	   -2.8748	    0.6384	   -0.1590
C	   -3.7577	   -0.5520	   -0.0875
C	   -3.8515	   -1.3305	    1.0941
C	   -4.6166	   -2.5039	    1.1411
C	   -5.3239	   -2.9389	    0.0082
C	   -5.2701	   -2.1675	   -1.1649
C	   -4.5067	   -0.9929	   -1.2085
C	   -0.3312	   -0.9331	    1.7361
C	    1.0588	   -1.3925	    1.9992
C	    2.1145	   -0.4772	    2.2359
C	    3.4433	   -0.9036	    2.3561
C	    3.7627	   -2.2661	    2.2530
C	    2.7295	   -3.1962	    2.0527
C	    1.4007	   -2.7663	    1.9337
H	   -0.3195	    1.1325	   -3.4022
H	   -2.2677	   -0.3210	   -2.9850
H	   -2.1397	   -2.3067	   -1.5252
H	   -0.0062	   -2.9675	   -0.4233
H	    2.0465	   -1.6518	   -0.6670
H	    2.8318	    0.2106	   -3.6349
H	    2.3542	    1.7062	   -2.8271
H	    4.1396	   -1.5823	   -2.2534
H	    6.0601	   -1.8559	   -0.6916
H	    6.8044	    0.0634	    0.7475
H	    5.5871	    2.2568	    0.6025
H	    3.6614	    2.5207	   -0.9557
H	    1.6192	    1.8376	    0.4822
H	    1.0584	    2.4874	   -1.1242
H	   -1.1364	    3.6425	   -1.3469
H	   -3.1726	    4.6204	   -0.2977
H	   -3.6006	    4.3269	    2.1592
H	   -1.9279	    3.0880	    3.5648
H	    0.1279	    2.1447	    2.5324
H	   -2.9025	    1.2205	    0.7936
H	   -3.1672	    1.3334	   -0.9714
H	   -3.3144	   -0.9986	    1.9969
H	   -4.6648	   -3.0832	    2.0765
H	   -5.9232	   -3.8610	    0.0434
H	   -5.8380	   -2.4797	   -2.0553
H	   -4.4912	   -0.3902	   -2.1311
H	   -0.6487	   -0.1286	    2.4434
H	   -1.0704	   -1.7554	    1.8094
H	    1.8904	    0.5976	    2.3215
H	    4.2391	   -0.1609	    2.5129
H	    4.8081	   -2.5994	    2.3310
H	    2.9597	   -4.2713	    1.9921
H	    0.5994	   -3.5092	    1.7908
