79

Zr	    0.9626	    0.1632	    0.3324
B	   -0.0050	    0.7429	    2.8836
B	   -1.1210	   -1.5736	   -0.5144
C	   -0.4434	   -0.6378	    2.3923
C	    0.4924	   -1.6585	    2.1066
C	    1.8862	   -1.4172	    2.1469
C	    2.3773	   -0.1426	    2.5387
C	    1.5168	    0.9238	    2.8585
C	   -1.0300	    1.8941	    3.3329
C	   -2.3300	    1.8961	    2.5710
C	   -3.3485	    0.9586	    2.8558
C	   -4.5201	    0.8996	    2.0857
C	   -4.7056	    1.7802	    1.0070
C	   -3.7163	    2.7358	    0.7262
C	   -2.5487	    2.7931	    1.5028
C	    0.2005	   -1.8078	   -1.2488
C	    0.7616	   -0.7999	   -2.0647
C	    0.2391	    0.5157	   -2.0899
C	   -0.8994	    0.8519	   -1.3065
C	   -1.5415	   -0.0958	   -0.4896
C	   -2.0036	   -2.7412	    0.1336
C	   -3.2549	   -2.8658	   -0.7071
C	   -3.2811	   -3.6862	   -1.8550
C	   -4.4189	   -3.7511	   -2.6729
C	   -5.5570	   -2.9895	   -2.3638
C	   -5.5440	   -2.1645	   -1.2277
C	   -4.4060	   -2.1039	   -0.4106
C	    3.1614	   -0.0783	   -0.4197
C	    3.9844	   -1.3070	   -0.2573
C	    3.7729	   -2.4633	   -1.0501
C	    4.5171	   -3.6345	   -0.8549
C	    5.5045	   -3.6960	    0.1424
C	    5.7496	   -2.5567	    0.9245
C	    5.0082	   -1.3838	    0.7207
C	    1.1333	    2.4981	    0.3203
C	    1.2456	    3.2453	   -0.9571
C	    0.1641	    3.9991	   -1.4788
C	    0.2572	    4.6591	   -2.7123
C	    1.4424	    4.6004	   -3.4636
C	    2.5376	    3.8847	   -2.9517
C	    2.4407	    3.2214	   -1.7211
H	   -1.5056	   -0.9040	    2.2766
H	    0.1502	   -2.6595	    1.7987
H	    2.5963	   -2.2118	    1.8793
H	    3.4702	   -0.0067	    2.5484
H	    1.9989	    1.8871	    3.0995
H	   -1.2295	    1.7133	    4.4140
H	   -0.5428	    2.8897	    3.2775
H	   -3.2192	    0.2658	    3.7026
H	   -5.2988	    0.1618	    2.3342
H	   -5.6193	    1.7276	    0.3964
H	   -3.8553	    3.4460	   -0.1038
H	   -1.7852	    3.5550	    1.2792
H	    0.7223	   -2.7808	   -1.2377
H	    1.6498	   -1.0090	   -2.6810
H	    0.7173	    1.2882	   -2.7075
H	   -1.2470	    1.8957	   -1.3332
H	   -2.3886	    0.2751	    0.1102
H	   -1.4517	   -3.7040	    0.1432
H	   -2.2903	   -2.5037	    1.1791
H	   -2.3906	   -4.2840	   -2.1078
H	   -4.4165	   -4.4032	   -3.5602
H	   -6.4503	   -3.0398	   -3.0047
H	   -6.4303	   -1.5625	   -0.9728
H	   -4.4041	   -1.4498	    0.4752
H	    3.1183	    0.2539	   -1.4749
H	    3.5978	    0.7596	    0.1694
H	    3.0074	   -2.4443	   -1.8392
H	    4.3225	   -4.5117	   -1.4914
H	    6.0850	   -4.6174	    0.2987
H	    6.5360	   -2.5747	    1.6950
H	    5.2407	   -0.4895	    1.3212
H	    0.3460	    2.9120	    0.9796
H	    2.0896	    2.5545	    0.8839
H	   -0.7663	    4.0758	   -0.8934
H	   -0.6040	    5.2342	   -3.0866
H	    1.5161	    5.1182	   -4.4316
H	    3.4819	    3.8442	   -3.5168
H	    3.3113	    2.6679	   -1.3363
