35

Ti	   -0.7909	   -0.5756	    0.2714
Cl	   -0.0880	   -2.6396	   -0.2897
Cl	   -0.4195	   -0.3856	    2.4666
Cl	   -2.9966	   -0.7342	    0.0918
N	    1.1717	    0.4902	   -0.4799
B	    0.5335	    1.5656	    0.3345
C	   -0.8422	    1.7300	   -0.3318
C	   -0.8455	    0.9447	   -1.5345
C	    0.3338	    0.1691	   -1.5627
H	    0.6318	   -0.5459	   -2.3333
C	    1.1334	    2.3844	    1.5373
H	    1.6178	    3.3108	    1.1572
H	    1.8792	    1.8481	    2.1531
H	    0.3188	    2.7089	    2.2156
C	   -1.9746	    2.6154	    0.0992
H	   -1.8837	    3.6217	   -0.3659
H	   -1.9694	    2.7648	    1.1968
H	   -2.9663	    2.2057	   -0.1791
C	   -1.9011	    0.9047	   -2.5979
H	   -1.7893	    1.7852	   -3.2656
H	   -2.9179	    0.9369	   -2.1629
H	   -1.8219	   -0.0075	   -3.2199
C	    2.5845	   -0.0328	   -0.3800
C	    3.5196	    1.1812	   -0.5411
H	    3.3268	    1.6993	   -1.5018
H	    4.5745	    0.8423	   -0.5369
H	    3.3911	    1.9092	    0.2804
C	    2.8004	   -0.7131	    0.9816
H	    2.1676	   -1.6164	    1.0720
H	    2.5582	   -0.0414	    1.8245
H	    3.8616	   -1.0172	    1.0742
C	    2.8861	   -1.0454	   -1.4951
H	    2.2029	   -1.9155	   -1.4507
H	    3.9188	   -1.4193	   -1.3571
H	    2.8334	   -0.5858	   -2.5021
