26

Ti	   -0.1351	   -0.6261	   -0.2603
C	   -0.4931	    1.7335	    0.0917
C	   -1.0169	    1.0105	    1.2212
Cl	   -2.1660	   -0.8494	   -1.1256
Cl	    1.2893	   -0.6191	   -1.9782
Cl	    0.2688	   -2.5815	    0.7700
C	   -1.3418	    2.5562	   -0.8330
H	   -1.5624	    3.5492	   -0.3830
H	   -2.3125	    2.0720	   -1.0628
H	   -0.8223	    2.7420	   -1.7931
C	   -2.4357	    0.9935	    1.7028
H	   -2.6570	    1.9370	    2.2451
H	   -2.6245	    0.1494	    2.3933
H	   -3.1478	    0.9156	    0.8591
N	    1.2436	    0.5574	    1.1607
C	    0.0322	    0.2707	    1.8111
H	   -0.0053	   -0.3901	    2.6841
B	    1.0352	    1.5786	    0.1019
C	    2.5052	   -0.0214	    1.6079
H	    2.9489	    0.6016	    2.4120
H	    3.2099	   -0.0616	    0.7574
H	    2.3454	   -1.0512	    1.9802
C	    2.1856	    2.2800	   -0.7027
H	    2.6066	    3.1221	   -0.1103
H	    1.8094	    2.7069	   -1.6534
H	    3.0233	    1.5990	   -0.9543
