66

Ti	   -1.4628	   -0.3349	   -0.4028
Cl	   -1.3717	   -0.2439	   -2.7223
Cl	   -1.6437	   -2.5637	    0.0875
P	    1.8400	   -0.0031	    0.0868
N	   -2.6764	    1.6639	   -0.4230
N	    0.2258	    0.0342	    0.0213
B	   -2.2552	    1.5699	    0.9959
C	   -3.6105	    0.6499	   -0.7226
H	   -4.0833	    0.5900	   -1.7091
C	   -3.7884	   -0.1775	    0.3912
C	   -2.8909	    0.2602	    1.4455
C	   -4.7424	   -1.3298	    0.4642
H	   -5.5252	   -1.1303	    1.2264
H	   -4.2183	   -2.2622	    0.7554
H	   -5.2436	   -1.5068	   -0.5069
C	   -2.7847	   -0.4516	    2.7665
H	   -3.7304	   -0.3641	    3.3462
H	   -1.9801	   -0.0197	    3.3944
H	   -2.5729	   -1.5344	    2.6451
C	   -2.4191	    2.7354	   -1.3743
H	   -3.2998	    3.4081	   -1.4451
H	   -2.1910	    2.3169	   -2.3744
H	   -1.5533	    3.3308	   -1.0318
C	   -1.3967	    2.6652	    1.7383
H	   -2.0424	    3.5173	    2.0445
H	   -0.5816	    3.0881	    1.1173
H	   -0.9438	    2.2623	    2.6658
C	    2.5116	    1.3641	   -1.0882
C	    1.6259	    2.6126	   -0.9031
H	    1.9149	    3.3604	   -1.6708
H	    1.7353	    3.0881	    0.0860
H	    0.5615	    2.3530	   -1.0538
C	    2.3164	    0.9089	   -2.5486
H	    2.5495	    1.7713	   -3.2083
H	    1.2693	    0.6037	   -2.7482
H	    2.9968	    0.0870	   -2.8377
C	    3.9902	    1.7082	   -0.8427
H	    4.3042	    2.4701	   -1.5874
H	    4.6582	    0.8355	   -0.9660
H	    4.1684	    2.1422	    0.1592
C	    2.4361	   -1.7463	   -0.4799
C	    2.1006	   -2.7664	    0.6270
H	    2.3072	   -3.7811	    0.2266
H	    1.0261	   -2.7312	    0.8930
H	    2.7154	   -2.6451	    1.5376
C	    3.9408	   -1.7857	   -0.8014
H	    4.2181	   -2.8343	   -1.0397
H	    4.5790	   -1.4616	    0.0414
H	    4.1971	   -1.1763	   -1.6888
C	    1.6269	   -2.1771	   -1.7200
H	    1.9466	   -3.2072	   -1.9839
H	    1.7877	   -1.5399	   -2.6037
H	    0.5431	   -2.2076	   -1.5097
C	    2.3748	    0.3224	    1.9113
C	    1.3713	   -0.4258	    2.8145
H	    1.5542	   -0.1227	    3.8667
H	    1.4684	   -1.5229	    2.7587
H	    0.3297	   -0.1652	    2.5473
C	    3.8167	   -0.1139	    2.2222
H	    4.0454	    0.1547	    3.2754
H	    4.5638	    0.3972	    1.5850
H	    3.9656	   -1.2053	    2.1280
C	    2.2300	    1.8216	    2.2343
H	    2.3938	    1.9551	    3.3243
H	    1.2158	    2.1932	    2.0045
H	    2.9743	    2.4530	    1.7147
