75

Ti	   -0.9491	   -0.1690	    0.0183
Cl	   -1.1806	   -2.3152	   -0.8641
Cl	   -1.1135	   -0.4101	    2.2966
P	    2.3871	   -0.0714	    0.0101
N	   -3.3855	    0.2854	   -0.3539
N	    0.7908	    0.1167	   -0.1880
B	   -2.9374	    1.3998	    0.5262
C	   -2.6508	    0.3213	   -1.5452
H	   -2.8329	   -0.3835	   -2.3598
C	    2.9363	    0.9353	    1.5603
C	    3.2159	    0.6180	   -1.5900
C	   -1.7851	    2.0365	   -0.2653
C	   -1.7400	    1.3939	   -1.5520
C	    2.8080	   -1.9336	    0.2361
C	    1.8063	   -2.5640	    1.2251
H	    2.0528	   -3.6440	    1.3026
H	    0.7676	   -2.4866	    0.8553
H	    1.8489	   -2.1373	    2.2391
C	    2.0967	    2.2263	    1.5998
H	    2.3560	    2.7778	    2.5277
H	    1.0191	    1.9843	    1.6307
H	    2.2793	    2.9021	    0.7475
C	   -4.5274	   -0.6675	   -0.1439
C	    2.5765	    0.1570	    2.8422
H	    2.7682	    0.8275	    3.7064
H	    3.1934	   -0.7478	    2.9914
H	    1.5038	   -0.1185	    2.8647
C	   -4.2613	   -1.5440	    1.0922
H	   -3.3778	   -2.1895	    0.9238
H	   -5.1407	   -2.1905	    1.2854
H	   -4.0688	   -0.9365	    1.9946
C	   -0.9221	    1.7934	   -2.7446
H	   -1.4165	    2.6306	   -3.2829
H	   -0.8041	    0.9576	   -3.4618
H	    0.0866	    2.1423	   -2.4552
C	    3.0582	    2.1516	   -1.5826
H	    3.3701	    2.5414	   -2.5739
H	    3.6861	    2.6495	   -0.8211
H	    2.0036	    2.4474	   -1.4203
C	   -0.9787	    3.2552	    0.0835
H	   -1.4824	    4.1799	   -0.2769
H	    0.0369	    3.2448	   -0.3622
H	   -0.8606	    3.3650	    1.1798
C	    2.4110	    0.0874	   -2.7965
H	    2.6607	    0.7043	   -3.6848
H	    1.3236	    0.1620	   -2.6132
H	    2.6472	   -0.9611	   -3.0423
C	    4.4390	    1.2642	    1.5647
H	    4.6796	    1.7863	    2.5149
H	    4.7330	    1.9419	    0.7412
H	    5.0764	    0.3611	    1.5175
C	    4.2492	   -2.1520	    0.7319
H	    4.4434	   -3.2449	    0.7624
H	    4.4089	   -1.7681	    1.7568
H	    5.0114	   -1.7025	    0.0685
C	    4.7000	    0.2518	   -1.7526
H	    5.0844	    0.7393	   -2.6737
H	    4.8525	   -0.8369	   -1.8775
H	    5.3280	    0.5984	   -0.9110
C	    2.6046	   -2.6549	   -1.1108
H	    2.6788	   -3.7469	   -0.9256
H	    3.3768	   -2.3985	   -1.8595
H	    1.5966	   -2.4595	   -1.5252
C	   -4.7188	   -1.5855	   -1.3617
H	   -3.8143	   -2.1962	   -1.5499
H	   -4.9756	   -1.0152	   -2.2770
H	   -5.5594	   -2.2758	   -1.1538
C	   -5.8018	    0.1769	    0.0484
H	   -5.9702	    0.8335	   -0.8287
H	   -5.7368	    0.8128	    0.9502
H	   -6.6821	   -0.4873	    0.1597
C	   -3.5423	    1.8665	    1.9080
H	   -4.3368	    2.6279	    1.7446
H	   -2.7541	    2.3531	    2.5175
H	   -3.9775	    1.0593	    2.5272
