52

Ti	   -0.3296	   -0.0753	   -0.5317
Cl	   -0.8002	    1.6443	   -1.9191
Cl	   -0.8098	   -1.9872	   -1.6831
O	    1.4514	   -0.1226	   -0.5033
N	   -2.3986	   -0.0963	    0.6497
B	   -1.8995	    1.2848	    0.9162
C	   -0.5290	    1.0363	    1.5643
C	   -0.4050	   -0.3738	    1.8018
C	   -1.4963	   -1.0274	    1.1944
H	   -1.6897	   -2.1024	    1.1728
C	   -2.6180	    2.6629	    0.6595
H	   -3.1783	    2.9741	    1.5685
H	   -3.3268	    2.6761	   -0.1893
H	   -1.8620	    3.4504	    0.4656
C	    0.4830	    2.0420	    2.0330
H	    0.3434	    2.2606	    3.1148
H	    0.3741	    3.0050	    1.4968
H	    1.5304	    1.6969	    1.9093
C	    0.6939	   -1.0661	    2.5506
H	    0.5860	   -0.8651	    3.6376
H	    1.6965	   -0.7014	    2.2530
H	    0.6638	   -2.1619	    2.4041
C	   -3.7480	   -0.5074	    0.1162
C	   -3.9162	   -0.0062	   -1.3276
H	   -3.7577	    1.0841	   -1.4088
H	   -4.9409	   -0.2368	   -1.6802
H	   -3.1926	   -0.5069	   -1.9989
C	   -4.8086	    0.1182	    1.0422
H	   -4.7781	    1.2226	    1.0121
H	   -4.6535	   -0.2074	    2.0903
H	   -5.8199	   -0.2054	    0.7254
C	   -3.9122	   -2.0350	    0.1324
H	   -3.8828	   -2.4466	    1.1611
H	   -3.1401	   -2.5317	   -0.4865
H	   -4.9023	   -2.2851	   -0.2949
C	    2.7809	   -0.1207	   -0.2752
C	    3.4859	    1.1049	   -0.4367
C	    4.8623	    1.1090	   -0.1602
H	    5.4226	    2.0500	   -0.2750
C	    5.5260	   -0.0615	    0.2412
H	    6.6053	   -0.0370	    0.4532
C	    4.8172	   -1.2645	    0.3479
H	    5.3432	   -2.1897	    0.6323
C	    3.4351	   -1.3278	    0.0849
C	    2.7619	    2.3270	   -0.9294
H	    3.4424	    3.1977	   -0.9823
H	    1.9026	    2.5899	   -0.2814
H	    2.3291	    2.1544	   -1.9362
C	    2.6955	   -2.6394	    0.1538
H	    1.6481	   -2.5483	   -0.1870
H	    2.6940	   -3.0480	    1.1857
H	    3.1921	   -3.3954	   -0.4882
