75

Ti	   -1.8988	   -0.0645	    0.0740
S	   -0.1608	    1.9829	   -0.8918
S	   -0.0616	   -2.0429	    0.9979
O	   -0.3613	    0.5639	   -1.4504
O	   -0.3000	    3.1046	   -1.8533
N	   -3.2569	   -0.0156	   -1.2864
N	   -1.1403	   -1.9809	   -0.2054
O	   -0.2961	   -0.6451	    1.5826
N	   -1.2253	    1.8947	    0.3230
O	   -0.1633	   -3.1889	    1.9337
C	    1.5431	    2.0139	   -0.3092
N	   -3.1602	   -0.1143	    1.5196
C	   -1.3149	   -3.1747	   -1.0537
H	   -0.3814	   -3.7822	   -0.9830
C	    1.9049	    1.3663	    0.8825
H	    1.1366	    0.8869	    1.5059
C	    4.2591	    1.8514	    0.4008
C	    3.2586	    1.2957	    1.2268
H	    3.5478	    0.7727	    2.1518
C	    1.6175	   -2.0604	    0.3519
C	   -1.4836	   -2.7481	   -2.5122
H	   -0.6072	   -2.1658	   -2.8571
H	   -2.3766	   -2.1032	   -2.6227
H	   -1.6020	   -3.6351	   -3.1662
C	    5.7113	    1.7498	    0.7896
H	    6.3815	    2.0533	   -0.0377
H	    5.9731	    0.7139	    1.0871
H	    5.9379	    2.4005	    1.6608
C	   -1.6721	    3.0846	    1.0690
H	   -2.2168	    2.6585	    1.9379
C	    4.2993	   -1.8866	   -0.4757
C	    3.8603	    2.5045	   -0.7835
H	    4.6247	    2.9513	   -1.4388
C	    2.5084	    2.5937	   -1.1452
H	    2.1920	    3.1040	   -2.0661
C	    1.9264	   -1.3969	   -0.8466
H	    1.1312	   -0.9050	   -1.4255
C	    3.2636	   -1.3209	   -1.2497
H	    3.5117	   -0.7857	   -2.1796
C	   -3.0740	   -0.9529	    2.6998
H	   -2.2393	   -1.6718	    2.6356
H	   -4.0202	   -1.5304	    2.8392
H	   -2.9265	   -0.3453	    3.6256
C	   -2.4730	   -4.0371	   -0.5389
H	   -2.2946	   -4.3187	    0.5169
H	   -2.5777	   -4.9628	   -1.1408
H	   -3.4273	   -3.4761	   -0.5942
C	   -0.5073	    3.9219	    1.6101
H	    0.1774	    3.3094	    2.2280
H	   -0.8915	    4.7540	    2.2334
H	    0.0796	    4.3677	    0.7803
C	   -4.4787	   -0.7918	   -1.2071
H	   -4.5184	   -1.3633	   -0.2612
H	   -4.5555	   -1.5181	   -2.0528
H	   -5.3846	   -0.1404	   -1.2666
C	    2.6192	   -2.6526	    1.1355
H	    2.3429	   -3.1777	    2.0610
C	    3.9535	   -2.5559	    0.7167
H	    4.7465	   -3.0109	    1.3311
C	   -2.6510	    3.9301	    0.2420
H	   -3.4841	    3.3051	   -0.1352
H	   -2.1361	    4.3708	   -0.6339
H	   -3.0779	    4.7497	    0.8551
C	   -3.2022	    0.7604	   -2.5121
H	   -2.2935	    1.3838	   -2.5627
H	   -4.0916	    1.4315	   -2.5921
H	   -3.2137	    0.1025	   -3.4153
C	   -4.2978	    0.7798	    1.5799
H	   -4.3709	    1.3858	    0.6574
H	   -4.2255	    1.4802	    2.4478
H	   -5.2556	    0.2182	    1.7058
C	    5.7329	   -1.7804	   -0.9272
H	    5.9813	   -0.7419	   -1.2273
H	    5.9206	   -2.4235	   -1.8131
H	    6.4392	   -2.0907	   -0.1331
