41

Sc	    1.3179	   -0.4911	    0.0390
Cl	    2.4656	   -0.0895	    2.0373
Cl	    2.6861	   -0.1649	   -1.8305
N	   -0.0148	    1.1931	   -0.0673
N	   -2.0279	    0.0995	   -0.1736
B	   -1.1535	   -1.1404	   -0.0931
C	   -0.4927	   -1.7134	   -1.3341
H	   -0.7237	   -1.3595	   -2.3526
C	    0.5449	   -2.6545	   -1.2001
H	    1.0752	   -3.0319	   -2.0892
C	    1.0157	   -3.0619	    0.0752
H	    1.8720	   -3.7493	    0.1401
C	    0.3978	   -2.6053	    1.2674
H	    0.8187	   -2.9441	    2.2277
C	   -0.6469	   -1.6615	    1.2404
H	   -0.9901	   -1.2659	    2.2108
C	   -1.3449	    1.2649	   -0.1364
C	   -2.1237	    2.5594	   -0.1799
H	   -2.7204	    2.6214	   -1.1120
H	   -1.4642	    3.4370	   -0.1388
H	   -2.8297	    2.6193	    0.6720
C	    0.9056	    2.3490	   -0.0491
H	    1.9219	    1.8851	   -0.0002
C	    0.8137	    3.1860	    1.2345
H	   -0.1315	    3.7576	    1.3203
H	    1.6490	    3.9137	    1.2672
H	    0.9091	    2.5202	    2.1146
C	    0.9191	    3.1426	   -1.3628
H	    1.0922	    2.4499	   -2.2097
H	    1.7496	    3.8764	   -1.3492
H	   -0.0194	    3.7021	   -1.5461
C	   -3.4957	   -0.0002	   -0.1358
H	   -3.9147	    0.9478	   -0.5288
C	   -3.9945	   -0.1892	    1.3048
H	   -3.6159	   -1.1430	    1.7246
H	   -5.1023	   -0.2149	    1.3366
H	   -3.6482	    0.6329	    1.9629
C	   -3.9708	   -1.1313	   -1.0532
H	   -3.6283	   -0.9727	   -2.0944
H	   -5.0769	   -1.1872	   -1.0510
H	   -3.5776	   -2.1109	   -0.7120
