42

Zr	    1.1846	   -0.1668	    0.0252
Cl	    3.5962	   -0.4711	    0.1605
Cl	    1.3062	    0.6602	    2.3176
Cl	    1.5660	    0.7014	   -2.2230
N	   -2.3017	   -0.3486	   -0.1859
N	   -0.6432	    1.2421	   -0.0640
B	   -1.1578	   -1.3284	   -0.1236
C	   -0.3900	   -1.7331	   -1.3713
H	   -0.6976	   -1.4213	   -2.3816
C	    0.8173	   -2.4495	   -1.2561
H	    1.4101	   -2.6981	   -2.1508
C	    1.3632	   -2.7769	    0.0124
H	    2.3457	   -3.2639	    0.0658
C	    0.6719	   -2.4724	    1.2131
H	    1.1562	   -2.7363	    2.1668
C	   -0.5418	   -1.7558	    1.1989
H	   -0.9588	   -1.4569	    2.1732
C	   -3.6947	   -0.8243	   -0.1289
H	   -4.3460	   -0.0219	   -0.5288
C	   -3.8719	   -2.0508	   -1.0296
H	   -3.5879	   -1.8242	   -2.0758
H	   -4.9278	   -2.3846	   -1.0169
H	   -3.2445	   -2.8968	   -0.6809
C	   -4.1202	   -1.1166	    1.3180
H	   -3.5180	   -1.9457	    1.7418
H	   -5.1876	   -1.4129	    1.3612
H	   -3.9807	   -0.2296	    1.9678
C	   -1.9406	    0.9579	   -0.1321
C	   -3.0433	    1.9910	   -0.1629
H	   -3.6352	    1.8934	   -1.0949
H	   -2.6543	    3.0158	   -0.1137
H	   -3.7357	    1.8461	    0.6897
C	   -0.1005	    2.6219	   -0.0369
H	    1.0073	    2.4701	    0.0088
C	   -0.4387	    3.4082	    1.2389
H	   -1.4958	    3.7360	    1.2782
H	    0.1906	    4.3195	    1.2846
H	   -0.2217	    2.7953	    2.1336
C	   -0.3329	    3.4126	   -1.3329
H	   -0.0367	    2.8049	   -2.2083
H	    0.2913	    4.3284	   -1.3222
H	   -1.3858	    3.7320	   -1.4591
