71

Y	   -0.5193	   -0.2846	   -0.1965
Si	   -0.0170	    3.4158	    0.0389
Si	   -4.1000	   -1.0679	   -0.0807
N	    2.9519	   -1.1080	    0.0073
N	    1.1789	   -0.6955	    1.4404
B	    1.9473	   -1.0015	   -1.1324
C	    1.0311	   -2.1576	   -1.4893
H	    1.1277	   -3.1602	   -1.0378
C	   -0.0326	   -1.9546	   -2.3911
H	   -0.7151	   -2.7820	   -2.6464
C	   -0.3007	   -0.6796	   -2.9510
H	   -1.1682	   -0.5520	   -3.6157
C	    0.5425	    0.4272	   -2.6828
H	    0.2905	    1.3949	   -3.1468
C	    1.6384	    0.3242	   -1.8005
H	    2.1945	    1.2523	   -1.5871
C	    2.4825	   -0.9297	    1.2630
C	    3.4710	   -0.9902	    2.4090
H	    3.0014	   -0.7417	    3.3738
H	    4.3024	   -0.2774	    2.2464
H	    3.9140	   -2.0025	    2.4969
C	    4.3874	   -1.2386	   -0.3061
H	    4.8957	   -1.6602	    0.5842
C	    4.5890	   -2.2285	   -1.4577
H	    4.1621	   -3.2205	   -1.2126
H	    5.6693	   -2.3523	   -1.6687
H	    4.0968	   -1.8669	   -2.3835
C	    5.0149	    0.1286	   -0.6186
H	    4.5744	    0.5566	   -1.5412
H	    6.1085	    0.0319	   -0.7737
H	    4.8440	    0.8511	    0.2048
C	    0.6052	   -0.6292	    2.7953
H	    1.2639	   -0.0283	    3.4643
C	   -0.7392	    0.1077	    2.7333
H	   -0.6338	    1.1134	    2.2780
H	   -1.1643	    0.2480	    3.7455
H	   -1.5077	   -0.4747	    2.1725
C	    0.4264	   -2.0300	    3.3985
H	   -0.2426	   -2.6363	    2.7536
H	   -0.0228	   -1.9753	    4.4110
H	    1.3925	   -2.5660	    3.4803
C	   -1.2011	    2.0027	   -0.2810
H	   -1.6954	    2.2007	   -1.2610
H	   -2.0219	    2.0397	    0.4773
C	    1.4461	    2.9231	    1.1714
H	    1.1025	    2.6379	    2.1882
H	    2.1468	    3.7760	    1.2903
H	    2.0164	    2.0654	    0.7587
C	   -0.8608	    4.8952	    0.8940
H	   -1.2991	    4.5899	    1.8676
H	   -1.6880	    5.2908	    0.2687
H	   -0.1495	    5.7257	    1.0885
C	    0.7353	    4.0553	   -1.5890
H	    1.3559	    3.2890	   -2.0961
H	    1.3817	    4.9384	   -1.4037
H	   -0.0627	    4.3645	   -2.2958
C	   -2.3803	   -1.7790	    0.0924
H	   -2.2652	   -2.5772	   -0.6783
H	   -2.3030	   -2.3023	    1.0771
C	   -4.2305	   -0.1292	   -1.7336
H	   -3.5152	    0.7190	   -1.7707
H	   -5.2488	    0.2806	   -1.8962
H	   -4.0009	   -0.8054	   -2.5845
C	   -5.4808	   -2.3817	   -0.0660
H	   -5.3418	   -3.1104	   -0.8918
H	   -6.4863	   -1.9243	   -0.1819
H	   -5.4743	   -2.9526	    0.8860
C	   -4.4684	    0.1430	    1.3434
H	   -4.3842	   -0.3660	    2.3270
H	   -5.4968	    0.5529	    1.2674
H	   -3.7653	    1.0017	    1.3426
