67

Cu	   -0.4838	   -0.1481	    0.0323
B	   -2.8191	   -1.1161	    1.0227
P	    1.4016	    0.8755	    0.1120
F	   -1.6166	   -0.9680	    1.8176
F	   -3.2201	   -2.4566	    1.0264
O	   -2.3140	   -0.7775	   -0.3822
O	   -3.7957	   -0.1814	    1.4797
N	    0.6817	   -2.0748	   -0.4026
C	    0.3105	   -3.0506	    0.6352
H	    0.6539	   -2.6905	    1.6225
H	    0.7437	   -4.0621	    0.4465
H	   -0.7926	   -3.1364	    0.6703
C	    0.1516	   -2.4632	   -1.7186
H	   -0.9528	   -2.5077	   -1.6482
H	    0.5364	   -3.4533	   -2.0640
H	    0.4293	   -1.6996	   -2.4714
C	    2.1072	   -1.7987	   -0.4510
C	    3.0079	   -2.8506	   -0.7139
H	    2.6157	   -3.8689	   -0.8558
C	    4.3860	   -2.6221	   -0.8020
H	    5.0700	   -3.4595	   -1.0080
C	    4.8862	   -1.3224	   -0.6322
H	    5.9666	   -1.1268	   -0.7051
C	    4.0021	   -0.2697	   -0.3638
H	    4.4077	    0.7417	   -0.2294
C	    2.6080	   -0.4810	   -0.2628
C	    1.6785	    2.2190	   -1.2213
C	    1.7210	    1.4513	   -2.5558
H	    2.6348	    0.8341	   -2.6571
H	    1.6945	    2.1740	   -3.3984
H	    0.8397	    0.7830	   -2.6542
C	    2.9301	    3.0932	   -1.0684
H	    2.9037	    3.6998	   -0.1424
H	    2.9849	    3.8029	   -1.9217
H	    3.8672	    2.5041	   -1.0771
C	    0.4188	    3.1072	   -1.2091
H	   -0.5000	    2.4927	   -1.2874
H	    0.4523	    3.8078	   -2.0705
H	    0.3381	    3.7124	   -0.2863
C	    1.8338	    1.4310	    1.8868
C	    1.4501	    0.2193	    2.7606
H	    0.3839	   -0.0588	    2.6412
H	    1.6237	    0.4723	    3.8282
H	    2.0731	   -0.6669	    2.5217
C	    0.9108	    2.6136	    2.2290
H	    1.2021	    3.5409	    1.6968
H	    0.9699	    2.8229	    3.3179
H	   -0.1456	    2.3805	    1.9838
C	    3.3016	    1.7946	    2.1466
H	    3.9721	    0.9266	    1.9969
H	    3.4104	    2.1104	    3.2063
H	    3.6587	    2.6300	    1.5160
C	   -3.2901	   -0.3591	   -1.3254
H	   -3.9066	   -1.2413	   -1.6212
H	   -2.7651	    0.0032	   -2.2374
C	   -4.2164	    0.7331	   -0.7558
C	   -4.7985	    0.1675	    0.5645
H	   -5.4552	    0.9355	    1.0336
H	   -5.4532	   -0.7071	    0.3145
C	   -5.3479	    1.0080	   -1.7502
H	   -4.9519	    1.3784	   -2.7191
H	   -6.0411	    1.7797	   -1.3560
H	   -5.9422	    0.0926	   -1.9536
C	   -3.4131	    2.0118	   -0.4768
H	   -2.5736	    1.8010	    0.2154
H	   -4.0531	    2.7898	   -0.0123
H	   -2.9932	    2.4301	   -1.4162
