73

Pd	    1.4719	   -0.0230	    0.1806
Br	   -0.5446	    0.1143	    1.7805
P	    1.6060	   -2.3460	    0.0891
P	    1.7353	    2.2735	   -0.0993
C	    3.1666	   -0.1218	   -0.9345
C	    3.8945	   -1.3403	   -1.0474
C	    5.0776	   -1.3958	   -1.8098
H	    5.6254	   -2.3484	   -1.8897
C	    5.5651	   -0.2533	   -2.4575
H	    6.4938	   -0.3038	   -3.0455
C	    4.8609	    0.9533	   -2.3537
H	    5.2362	    1.8541	   -2.8651
C	    3.6674	    1.0274	   -1.6092
C	    3.4031	   -2.5720	   -0.3273
H	    3.9324	   -2.6799	    0.6440
H	    3.5926	   -3.5079	   -0.8934
C	    2.8912	    2.3194	   -1.5548
H	    2.2467	    2.4076	   -2.4557
H	    3.5436	    3.2174	   -1.5484
C	    0.6362	   -3.0331	   -1.3978
C	   -0.8271	   -2.5749	   -1.2690
H	   -1.3929	   -2.8992	   -2.1675
H	   -0.9009	   -1.4719	   -1.2012
H	   -1.3379	   -2.9931	   -0.3828
C	    0.7229	   -4.5618	   -1.5167
H	    0.2111	   -5.0783	   -0.6823
H	    1.7702	   -4.9232	   -1.5664
H	    0.2212	   -4.8788	   -2.4555
C	    1.2395	   -2.3868	   -2.6606
H	    2.2835	   -2.7044	   -2.8503
H	    1.2276	   -1.2807	   -2.5980
H	    0.6284	   -2.6916	   -3.5360
C	    1.3722	   -3.3736	    1.6768
C	   -0.1215	   -3.6046	    1.9620
H	   -0.5841	   -4.2977	    1.2329
H	   -0.6907	   -2.6546	    1.9649
H	   -0.2264	   -4.0659	    2.9667
C	    2.1138	   -4.7217	    1.6141
H	    1.9725	   -5.2472	    2.5825
H	    3.2050	   -4.6000	    1.4683
H	    1.7294	   -5.3864	    0.8193
C	    1.9786	   -2.5123	    2.8042
H	    1.9205	   -3.0741	    3.7603
H	    1.4258	   -1.5608	    2.9254
H	    3.0470	   -2.2732	    2.6240
C	    0.2301	    3.2836	   -0.6826
C	    0.6344	    4.5592	   -1.4439
H	   -0.2890	    5.0607	   -1.8035
H	    1.2544	    4.3448	   -2.3363
H	    1.1774	    5.2834	   -0.8094
C	   -0.6780	    3.6440	    0.5047
H	   -0.2165	    4.4049	    1.1644
H	   -0.9372	    2.7533	    1.1094
H	   -1.6248	    4.0730	    0.1151
C	   -0.5260	    2.3365	   -1.6368
H	   -0.8777	    1.4259	   -1.1149
H	    0.0948	    2.0247	   -2.5019
H	   -1.4190	    2.8597	   -2.0381
C	    2.6932	    3.0829	    1.3322
C	    4.0551	    2.3636	    1.4015
H	    4.6873	    2.5536	    0.5123
H	    3.9303	    1.2666	    1.4991
H	    4.6058	    2.7322	    2.2925
C	    2.9137	    4.5889	    1.1268
H	    3.5743	    4.9720	    1.9336
H	    1.9672	    5.1606	    1.1784
H	    3.4093	    4.8160	    0.1613
C	    1.9358	    2.8216	    2.6465
H	    2.5315	    3.2252	    3.4925
H	    1.7838	    1.7373	    2.8137
H	    0.9418	    3.3045	    2.6710
I	   -3.2138	    0.0803	    0.4151
I	   -5.7284	    0.0785	   -0.8653
