35
CUXBEC Cr total_charge=+1 EN=17 VN=0 CrL₆ heatmap_gray_cell
Cr	   -2.7622	   -0.0000	    0.0000
C	   -2.6936	    1.8947	   -0.0006
O	   -2.5870	    3.0457	   -0.0009
C	   -2.8191	    0.0003	    1.9116
O	   -2.8422	    0.0005	    3.0638
C	   -2.6937	   -1.8948	    0.0004
O	   -2.5871	   -3.0458	    0.0006
C	   -2.8191	   -0.0003	   -1.9115
O	   -2.8423	   -0.0004	   -3.0638
C	   -4.6956	   -0.0000	    0.0001
O	   -5.8458	    0.0000	    0.0002
C	   -0.9091	   -0.0001	   -0.0000
N	    0.3020	   -0.0001	   -0.0000
C	    1.6359	   -0.0000	   -0.0000
C	    2.3615	   -1.2402	   -0.0001
C	    3.7888	   -1.1827	   -0.0000
C	    4.5668	   -2.3530	    0.0000
C	    3.9204	   -3.5877	   -0.0000
C	    2.5038	   -3.6724	   -0.0001
C	    1.7343	   -2.5178	   -0.0001
O	    4.4513	    0.0001	   -0.0000
C	    2.3614	    1.2402	    0.0001
C	    3.7887	    1.1828	    0.0000
C	    4.5666	    2.3532	    0.0000
C	    3.9201	    3.5878	    0.0001
C	    2.5035	    3.6724	    0.0002
C	    1.7341	    2.5178	    0.0002
H	    5.6620	   -2.2654	    0.0000
H	    4.5204	   -4.5097	    0.0000
H	    2.0165	   -4.6577	   -0.0002
H	    0.6363	   -2.5737	   -0.0002
H	    5.6618	    2.2657	   -0.0000
H	    4.5201	    4.5099	    0.0001
H	    2.0161	    4.6577	    0.0003
H	    0.6361	    2.5735	    0.0002
