50
HISPOR Cr total_charge=+1 EN=12 VN=5 CrL₁X₅ heatmap_gray_cell
Cr	   -0.0001	    0.2535	    0.5011
N	    0.0008	    0.0362	    2.0013
N	   -1.5820	   -0.3904	   -0.0796
N	    1.5815	   -0.3899	   -0.0812
N	   -0.0002	    2.2368	    0.2636
C	   -2.6392	   -1.0573	    0.7153
H	   -3.4492	   -1.3231	    0.0028
C	   -3.2299	   -0.1074	    1.7630
H	   -2.4670	    0.1583	    2.5206
H	   -4.0776	   -0.5991	    2.2794
H	   -3.6048	    0.8236	    1.2944
C	   -2.1184	   -2.3598	    1.3354
H	   -1.6968	   -3.0335	    0.5643
H	   -2.9479	   -2.8899	    1.8432
H	   -1.3323	   -2.1466	    2.0860
C	   -1.8269	   -0.2830	   -1.5323
H	   -0.9238	    0.2073	   -1.9638
C	   -3.0085	    0.6592	   -1.8155
H	   -3.9642	    0.2396	   -1.4438
H	   -3.1118	    0.8101	   -2.9080
H	   -2.8528	    1.6458	   -1.3369
C	   -1.9822	   -1.6484	   -2.2143
H	   -1.1194	   -2.3060	   -1.9942
H	   -2.0459	   -1.5143	   -3.3119
H	   -2.9052	   -2.1679	   -1.8898
C	    2.6417	   -1.0513	    0.7145
H	    3.4509	   -1.3182	    0.0015
C	    2.1253	   -2.3524	    1.3412
H	    1.3409	   -2.1380	    2.0931
H	    2.9574	   -2.8786	    1.8489
H	    1.7033	   -3.0302	    0.5740
C	    3.2324	   -0.0956	    1.7569
H	    3.6039	    0.8344	    1.2837
H	    4.0825	   -0.5831	    2.2734
H	    2.4705	    0.1713	    2.5153
C	    1.8232	   -0.2897	   -1.5350
H	    0.9179	    0.1955	   -1.9673
C	    1.9807	   -1.6586	   -2.2096
H	    2.0399	   -1.5305	   -3.3081
H	    1.1211	   -2.3178	   -1.9824
H	    2.9067	   -2.1730	   -1.8856
C	    3.0018	    0.6539	   -1.8257
H	    2.8443	    1.6429	   -1.3528
H	    3.1027	    0.7986	   -2.9193
H	    3.9592	    0.2391	   -1.4533
C	   -0.0001	    3.4038	    0.2176
C	    0.0000	    4.8483	    0.1711
H	    0.9172	    5.2139	   -0.3339
H	   -0.0286	    5.2533	    1.2033
H	   -0.8885	    5.2126	   -0.3835
