70
HISQUY Cr total_charge=+1 EN=12 VN=5 CrL₁X₅ heatmap_gray_cell
Cr	    0.7589	    0.1333	   -0.4449
P	   -1.0357	   -1.3648	    0.0801
N	    0.5799	    0.0691	   -1.9568
N	    0.4096	    1.8342	    0.0427
N	    2.3316	   -0.6839	   -0.0838
C	    0.3195	    3.0488	   -0.7961
H	    0.1321	    3.8999	   -0.1060
C	   -0.8502	    2.9835	   -1.7797
H	   -0.6946	    2.1663	   -2.5112
H	   -0.9251	    3.9382	   -2.3366
H	   -1.8080	    2.8107	   -1.2524
C	    1.6581	    3.3026	   -1.5026
H	    2.4918	    3.3628	   -0.7759
H	    1.6183	    4.2572	   -2.0635
H	    1.8761	    2.4855	   -2.2184
C	    0.3080	    2.0286	    1.5030
H	    0.4418	    1.0163	    1.9527
C	   -1.1120	    2.4784	    1.8861
H	   -1.3259	    3.4997	    1.5131
H	   -1.2151	    2.4981	    2.9891
H	   -1.8736	    1.7912	    1.4697
C	    1.3930	    2.9450	    2.0804
H	    2.4070	    2.5851	    1.8221
H	    1.3084	    2.9795	    3.1844
H	    1.2905	    3.9839	    1.7096
C	    3.2606	   -1.3157	   -1.0531
H	    4.1396	   -1.6638	   -0.4697
C	    3.7644	   -0.3045	   -2.0904
H	    2.9311	    0.0400	   -2.7335
H	    4.5285	   -0.7805	   -2.7361
H	    4.2233	    0.5781	   -1.6050
C	    2.6251	   -2.5443	   -1.7098
H	    2.2881	   -3.2752	   -0.9476
H	    3.3626	   -3.0492	   -2.3641
H	    1.7589	   -2.2445	   -2.3317
C	    2.8464	   -0.5587	    1.2968
H	    2.0600	   -0.0194	    1.8704
C	    4.1243	    0.2884	    1.3745
H	    4.3882	    0.4720	    2.4345
H	    3.9821	    1.2664	    0.8753
H	    4.9876	   -0.2192	    0.9010
C	    3.0169	   -1.9356	    1.9571
H	    2.0805	   -2.5238	    1.9013
H	    3.2882	   -1.8110	    3.0239
H	    3.8223	   -2.5248	    1.4757
C	   -1.1266	   -2.7333	   -1.1636
H	   -1.1421	   -2.2213	   -2.1480
H	   -0.1520	   -3.2606	   -1.1076
C	   -2.3123	   -3.6812	   -0.9931
H	   -3.2766	   -3.1357	   -1.0139
H	   -2.2593	   -4.2550	   -0.0469
H	   -2.3251	   -4.4175	   -1.8210
C	   -0.9835	   -2.2238	    1.7180
H	   -1.9447	   -2.7698	    1.8198
H	   -0.1984	   -3.0012	    1.6062
C	   -0.7099	   -1.3452	    2.9397
H	   -1.4148	   -0.4944	    3.0157
H	    0.3182	   -0.9341	    2.9223
H	   -0.8050	   -1.9417	    3.8681
C	   -2.6520	   -0.5155	   -0.0359
C	   -2.9441	    0.1669	   -1.2372
H	   -2.2006	    0.1974	   -2.0479
C	   -4.1754	    0.8162	   -1.3943
H	   -4.3978	    1.3411	   -2.3353
C	   -5.1185	    0.8026	   -0.3530
H	   -6.0822	    1.3190	   -0.4755
C	   -4.8319	    0.1261	    0.8424
H	   -5.5703	    0.1070	    1.6576
C	   -3.6050	   -0.5369	    1.0033
H	   -3.4070	   -1.0707	    1.9435
