84
HISQAE Cr total_charge=+1 EN=12 VN=5 CrL₁X₅ heatmap_gray_cell
Cr	    0.7862	    0.0243	   -0.5626
P	   -1.4939	   -0.1093	    0.2505
N	    0.4155	    0.3352	   -2.0058
N	    1.7846	    1.4242	    0.0003
N	    1.4660	   -1.6535	   -0.6017
C	    2.4943	    2.4417	   -0.8096
H	    3.0637	    3.0760	   -0.0962
C	    1.5367	    3.3554	   -1.5774
H	    0.8945	    2.7634	   -2.2586
H	    2.1153	    4.0784	   -2.1849
H	    0.8900	    3.9321	   -0.8882
C	    3.5096	    1.7638	   -1.7403
H	    4.2012	    1.1103	   -1.1733
H	    4.1127	    2.5288	   -2.2679
H	    2.9874	    1.1470	   -2.4975
C	    2.0554	    1.4327	    1.4529
H	    1.4724	    0.5791	    1.8770
C	    1.4858	    2.7094	    2.0955
H	    2.0375	    3.6090	    1.7577
H	    1.5800	    2.6534	    3.1975
H	    0.4181	    2.8469	    1.8385
C	    3.5309	    1.2226	    1.8147
H	    3.9300	    0.2896	    1.3759
H	    3.6430	    1.1629	    2.9151
H	    4.1602	    2.0646	    1.4649
C	    1.5996	   -2.5478	   -1.7797
H	    2.1179	   -3.4628	   -1.4224
C	    2.4731	   -1.9236	   -2.8745
H	    2.6352	   -2.6603	   -3.6858
H	    3.4617	   -1.6199	   -2.4808
H	    1.9769	   -1.0336	   -3.3084
C	    0.2308	   -2.9747	   -2.3150
H	   -0.3829	   -3.4417	   -1.5193
H	    0.3575	   -3.7157	   -3.1286
H	   -0.3144	   -2.1027	   -2.7245
C	    2.1499	   -2.1281	    0.6207
H	    1.9990	   -1.3339	    1.3862
C	    3.6635	   -2.2940	    0.4222
H	    4.1483	   -2.5032	    1.3959
H	    4.1128	   -1.3759	   -0.0028
H	    3.9013	   -3.1383	   -0.2543
C	    1.4970	   -3.4084	    1.1652
H	    0.4037	   -3.2828	    1.2785
H	    1.9237	   -3.6564	    2.1569
H	    1.6771	   -4.2747	    0.4986
C	   -2.5121	   -0.9072	   -1.0840
H	   -2.0629	   -0.5503	   -2.0318
H	   -2.2727	   -1.9906	   -1.0245
C	   -4.0385	   -0.6950	   -1.1234
H	   -4.2257	    0.3984	   -1.1988
C	   -4.5784	   -1.3406	   -2.4093
H	   -4.0807	   -0.9333	   -3.3122
H	   -5.6670	   -1.1609	   -2.5117
H	   -4.4192	   -2.4393	   -2.4002
C	   -4.7793	   -1.2278	    0.1081
H	   -4.5460	   -2.2984	    0.2872
H	   -5.8750	   -1.1472	   -0.0342
H	   -4.5349	   -0.6664	    1.0321
C	   -2.2636	    1.5283	    0.6546
H	   -3.3656	    1.3835	    0.6428
H	   -1.9885	    1.7242	    1.7098
C	   -1.8465	    2.7219	   -0.2218
H	   -0.7357	    2.7420	   -0.2181
C	   -2.3009	    2.5967	   -1.6794
H	   -1.8728	    1.7033	   -2.1757
H	   -1.9717	    3.4786	   -2.2638
H	   -3.4074	    2.5460	   -1.7541
C	   -2.3499	    4.0257	    0.4108
H	   -3.4591	    4.0519	    0.4476
H	   -2.0169	    4.9033	   -0.1787
H	   -1.9763	    4.1521	    1.4478
C	   -1.7500	   -1.1869	    1.7438
H	   -2.7907	   -1.0229	    2.0947
H	   -1.7232	   -2.2184	    1.3334
C	   -0.7719	   -1.0810	    2.9300
H	    0.2606	   -1.1836	    2.5263
C	   -1.0147	   -2.2559	    3.8884
H	   -2.0374	   -2.2103	    4.3172
H	   -0.2980	   -2.2326	    4.7333
H	   -0.9073	   -3.2342	    3.3784
C	   -0.8590	    0.2530	    3.6801
H	   -0.5729	    1.1170	    3.0506
H	   -0.1816	    0.2522	    4.5571
H	   -1.8876	    0.4321	    4.0569
