75
HISQEI Cr total_charge=+1 EN=12 VN=5 CrL₁X₅ heatmap_gray_cell
Cr	   -0.5778	    0.0050	   -0.4120
P	    1.8313	    0.0045	   -0.0287
N	   -0.5543	    0.0472	   -1.9328
N	   -1.3176	   -1.5866	    0.0319
N	   -1.3836	    1.5560	    0.0823
C	   -2.0773	   -2.5236	   -0.8308
H	   -2.4333	   -3.3447	   -0.1721
C	   -1.2077	   -3.1512	   -1.9213
H	   -0.7736	   -2.3681	   -2.5731
H	   -1.8222	   -3.8244	   -2.5503
H	   -0.3861	   -3.7528	   -1.4871
C	   -3.3145	   -1.8293	   -1.4164
H	   -3.9426	   -2.5660	   -1.9548
H	   -3.0122	   -1.0396	   -2.1309
H	   -3.9303	   -1.3646	   -0.6221
C	   -1.3287	   -1.8891	    1.4802
H	   -0.7530	   -1.0667	    1.9689
C	   -0.5676	   -3.1932	    1.7739
H	   -1.1087	   -4.0740	    1.3751
H	   -0.4680	   -3.3317	    2.8683
H	    0.4427	   -3.1838	    1.3244
C	   -2.7328	   -1.9095	    2.0976
H	   -2.6584	   -2.0538	    3.1933
H	   -3.3417	   -2.7431	    1.6960
H	   -3.2743	   -0.9648	    1.9097
C	   -1.9649	    2.6008	   -0.8013
H	   -2.4230	    3.3566	   -0.1291
C	   -3.0826	    2.0369	   -1.6869
H	   -2.6678	    1.3225	   -2.4244
H	   -3.5704	    2.8625	   -2.2417
H	   -3.8560	    1.5179	   -1.0896
C	   -0.8977	    3.3172	   -1.6282
H	   -0.0845	    3.7090	   -0.9866
H	   -1.3526	    4.1715	   -2.1671
H	   -0.4629	    2.6310	   -2.3793
C	   -1.7065	    1.7275	    1.5160
H	   -1.3039	    0.8279	    2.0339
C	   -3.2159	    1.7780	    1.7977
H	   -3.6735	    2.7199	    1.4373
H	   -3.3935	    1.7214	    2.8895
H	   -3.7448	    0.9347	    1.3145
C	   -0.9817	    2.9518	    2.0994
H	   -1.3713	    3.8953	    1.6689
H	    0.1067	    2.9081	    1.9028
H	   -1.1363	    2.9966	    3.1955
C	    2.5229	    1.7331	   -0.2951
H	    1.8113	    2.3401	    0.3072
C	    2.4156	    2.1862	   -1.7594
H	    2.4470	    3.2930	   -1.8039
H	    1.4849	    1.8507	   -2.2510
H	    3.2742	    1.8130	   -2.3503
C	    3.9445	    1.9535	    0.2361
H	    4.6717	    1.2544	   -0.2240
H	    4.0168	    1.8608	    1.3348
H	    4.2700	    2.9804	   -0.0284
C	    2.7583	   -1.2221	   -1.1068
H	    3.8290	   -1.0187	   -0.8801
C	    2.4169	   -2.6597	   -0.6916
H	    1.3420	   -2.8643	   -0.8565
H	    2.6600	   -2.8890	    0.3628
H	    2.9915	   -3.3675	   -1.3220
C	    2.5181	   -1.0336	   -2.6100
H	    3.0464	   -1.8395	   -3.1585
H	    2.8959	   -0.0710	   -2.9933
H	    1.4411	   -1.1016	   -2.8587
C	    2.2309	   -0.5176	    1.7390
H	    1.6128	   -1.4356	    1.8415
C	    3.6905	   -0.9084	    2.0189
H	    4.3667	   -0.0347	    2.0224
H	    4.0924	   -1.6467	    1.3004
H	    3.7467	   -1.3702	    3.0259
C	    1.7167	    0.5076	    2.7561
H	    1.8396	    0.1095	    3.7835
H	    0.6443	    0.7410	    2.6167
H	    2.2779	    1.4617	    2.7065
