84
HISRIN Cr total_charge=+1 EN=12 VN=5 CrL₁X₅ heatmap_gray_cell
Cr	    1.1866	    0.0143	   -0.7072
P	   -1.0479	   -0.0166	    0.1764
N	    0.8680	    0.0954	   -2.1956
N	    2.0956	    1.5199	   -0.3014
N	    1.9012	   -1.6252	   -0.4339
C	    2.7729	    2.4759	   -1.2047
H	    3.2639	    3.2344	   -0.5574
C	    1.7905	    3.2141	   -2.1164
H	    1.2705	    2.4994	   -2.7849
H	    2.3385	    3.9414	   -2.7470
H	    1.0364	    3.7690	   -1.5258
C	    3.8714	    1.7586	   -2.0016
H	    4.5864	    1.2464	   -1.3281
H	    4.4368	    2.4875	   -2.6152
H	    3.4252	    1.0030	   -2.6780
C	    2.2662	    1.7429	    1.1493
H	    1.7382	    0.8966	    1.6525
C	    1.5354	    3.0263	    1.5798
H	    2.0204	    3.9269	    1.1532
H	    1.5649	    3.1259	    2.6830
H	    0.4789	    3.0162	    1.2483
C	    3.7271	    1.7230	    1.6147
H	    4.2352	    0.7856	    1.3215
H	    3.7702	    1.8088	    2.7183
H	    4.3012	    2.5727	    1.1957
C	    2.0515	   -2.7160	   -1.4273
H	    2.6128	   -3.5301	   -0.9216
C	    2.8753	   -2.2784	   -2.6440
H	    2.3412	   -1.4961	   -3.2175
H	    3.0429	   -3.1466	   -3.3114
H	    3.8622	   -1.8803	   -2.3396
C	    0.6830	   -3.2772	   -1.8266
H	    0.1168	   -3.6148	   -0.9357
H	    0.8081	   -4.1456	   -2.5029
H	    0.0897	   -2.5074	   -2.3581
C	    2.6009	   -1.8394	    0.8528
H	    2.3808	   -0.9451	    1.4765
C	    4.1232	   -1.9186	    0.6648
H	    4.4224	   -2.8405	    0.1278
H	    4.6238	   -1.9333	    1.6528
H	    4.4999	   -1.0490	    0.0920
C	    2.0499	   -3.0532	    1.6146
H	    0.9572	   -2.9697	    1.7572
H	    2.5219	   -3.1056	    2.6154
H	    2.2716	   -4.0048	    1.0923
C	   -1.8068	    1.6462	    0.2238
C	   -1.5362	    2.5277	   -0.8441
H	   -0.8369	    2.2260	   -1.6366
C	   -2.1519	    3.7866	   -0.8871
H	   -1.9367	    4.4702	   -1.7220
C	   -3.0342	    4.1738	    0.1344
H	   -3.5109	    5.1649	    0.1039
C	   -3.3111	    3.2948	    1.1943
H	   -4.0079	    3.5936	    1.9916
C	   -2.7058	    2.0302	    1.2417
H	   -2.9335	    1.3454	    2.0715
C	   -1.0131	   -0.6350	    1.9005
C	   -0.5703	    0.2152	    2.9391
H	   -0.3311	    1.2676	    2.7278
C	   -0.4629	   -0.2674	    4.2514
H	   -0.1236	    0.4059	    5.0526
C	   -0.7985	   -1.5992	    4.5440
H	   -0.7210	   -1.9741	    5.5753
C	   -1.2405	   -2.4485	    3.5180
H	   -1.5097	   -3.4915	    3.7414
C	   -1.3408	   -1.9746	    2.2011
H	   -1.6788	   -2.6591	    1.4098
C	   -2.2544	   -1.0859	   -0.7665
H	   -1.8155	   -2.1069	   -0.7020
C	   -3.6591	   -1.0804	   -0.1340
H	   -4.0646	   -0.0466	   -0.1808
H	   -3.6216	   -1.3567	    0.9390
C	   -4.5938	   -2.0307	   -0.8996
H	   -4.2289	   -3.0756	   -0.7804
H	   -5.6039	   -2.0000	   -0.4422
C	   -4.6612	   -1.6778	   -2.3895
H	   -5.1443	   -0.6823	   -2.5068
H	   -5.3052	   -2.4019	   -2.9290
C	   -3.2627	   -1.6351	   -3.0157
H	   -2.8224	   -2.6577	   -3.0152
H	   -3.3178	   -1.3212	   -4.0780
C	   -2.3258	   -0.6878	   -2.2516
H	   -1.3149	   -0.6815	   -2.7059
H	   -2.7121	    0.3526	   -2.3262
