29
IPEMIZ Cr total_charge=+1 EN=14 VN=3 CrL₃X₃ heatmap_gray_cell
Cr	   -0.7757	   -0.0721	   -0.0172
O	   -1.0048	   -1.6022	    2.3886
O	   -2.3214	   -1.8353	   -1.6531
N	   -0.8399	   -1.0225	    1.3910
N	   -1.6259	   -1.1599	   -1.0100
N	    1.1115	   -0.6196	   -0.6266
H	    1.3667	   -0.2843	   -1.5661
C	   -0.4440	    1.8782	    0.9852
H	    0.1958	    2.0228	    1.8644
C	   -1.8452	    1.5408	    0.9998
H	   -2.4573	    1.3705	    1.8945
C	   -2.2954	    1.4645	   -0.3495
H	   -3.3148	    1.2246	   -0.6771
C	   -1.1765	    1.7532	   -1.2106
H	   -1.1990	    1.7885	   -2.3069
C	   -0.0486	    2.0153	   -0.3774
H	    0.9657	    2.2517	   -0.7221
C	    1.6982	   -1.9579	   -0.3599
H	    1.0743	   -2.6287	    0.2483
H	    2.2139	   -2.4369	   -1.2077
C	    2.3137	   -0.7501	    0.2517
H	    2.0687	   -0.5541	    1.3101
C	    3.6427	   -0.2062	   -0.2179
H	    3.7970	   -0.4821	   -1.2845
H	    4.4273	   -0.7554	    0.3459
C	    3.8155	    1.3003	   -0.0148
H	    3.6476	    1.5907	    1.0423
H	    3.1177	    1.8884	   -0.6463
H	    4.8397	    1.6192	   -0.2871
