29
IPEMEV Cr total_charge=+1 EN=14 VN=3 CrL₃X₃ heatmap_gray_cell
Cr	   -0.6902	    0.1301	   -0.0294
O	   -1.8961	    2.2067	   -1.5806
O	   -0.5696	    1.6192	    2.4088
N	   -1.3321	    1.3900	   -0.9733
N	   -0.5463	    1.0406	    1.3968
N	    1.2371	    0.3153	   -0.7319
C	   -0.3624	   -2.0592	   -0.3888
H	    0.6000	   -2.4841	   -0.7008
C	   -1.3834	   -1.5763	   -1.2622
H	   -1.3687	   -1.6002	   -2.3590
C	   -2.4608	   -1.0850	   -0.4414
H	   -3.4014	   -0.6524	   -0.8054
C	   -2.0903	   -1.2559	    0.9233
H	   -2.6940	   -0.9771	    1.7961
C	   -0.7828	   -1.8596	    0.9578
H	   -0.2213	   -2.1287	    1.8605
C	    2.1754	    1.4266	   -0.4312
H	    2.6308	    1.9309	   -1.2985
H	    1.8494	    2.0961	    0.3791
C	    2.5757	    0.0274	   -0.0987
C	    3.5673	   -0.6814	   -0.9978
H	    3.5195	   -0.3167	   -2.0435
H	    3.3972	   -1.7775	   -0.9948
H	    4.5981	   -0.5051	   -0.6313
C	    2.5678	   -0.4307	    1.3422
H	    1.8310	    0.1160	    1.9572
H	    3.5692	   -0.2555	    1.7827
H	    2.3611	   -1.5175	    1.4120
H	    1.2688	    0.0853	   -1.7346
