49
JEVRAD Cr total_charge=+1 EN=14 VN=3 CrL₃X₃ heatmap_gray_cell
Cr	    0.0248	   -0.0007	   -0.5555
N	    1.5659	   -1.4530	   -0.3851
N	    1.6444	    1.3977	   -0.4466
N	    0.4392	    0.0366	    1.7580
C	    2.8856	   -0.7592	   -0.5803
H	    3.5350	   -1.3575	   -1.2512
H	    3.4145	   -0.7184	    0.3909
C	    2.7188	    0.6453	   -1.1573
H	    3.6884	    1.1918	   -1.1103
H	    2.4163	    0.5887	   -2.2194
C	    2.0410	    1.7351	    0.9562
H	    2.3080	    2.8094	    1.0262
H	    2.9640	    1.1793	    1.2101
C	    0.9347	    1.4152	    1.9499
H	    1.2975	    1.5855	    2.9909
H	    0.0718	    2.0878	    1.7796
C	    1.4481	   -1.0109	    2.0567
H	    2.4480	   -0.5469	    2.1562
H	    1.2457	   -1.4899	    3.0381
C	    1.4504	   -2.0711	    0.9638
H	    0.4916	   -2.6245	    0.9691
H	    2.2711	   -2.8054	    1.1300
C	    1.3499	   -2.4925	   -1.4216
H	    1.4513	   -2.0384	   -2.4233
H	    0.3222	   -2.8865	   -1.3186
H	    2.0835	   -3.3198	   -1.3064
C	    1.2784	    2.6275	   -1.1879
H	    0.4158	    3.1031	   -0.6870
H	    0.9722	    2.3555	   -2.2140
H	    2.1341	    3.3360	   -1.2279
C	   -0.7854	   -0.1903	    2.5477
H	   -1.1521	   -1.2184	    2.3771
H	   -1.5736	    0.5163	    2.2321
H	   -0.5906	   -0.0512	    3.6348
O	    0.0521	    0.0200	   -2.1057
O	   -1.2980	   -1.3905	   -0.1477
O	   -1.2772	    1.4022	   -0.1125
C	   -3.3433	    2.5464	   -0.1817
H	   -4.4347	    2.3815	   -0.2055
H	   -3.0500	    3.1681	   -1.0531
H	   -3.0769	    3.1282	    0.7244
C	   -2.5592	    1.2637	   -0.2087
C	   -3.2219	    0.0225	   -0.3047
H	   -4.3169	    0.0314	   -0.3745
C	   -2.5786	   -1.2298	   -0.2234
C	   -3.3836	   -2.4994	   -0.1956
H	   -4.4722	   -2.3163	   -0.2118
H	   -3.1219	   -3.0869	    0.7083
H	   -3.1064	   -3.1252	   -1.0693
