34
KEHRIY Cr total_charge=-1 EN=18 VN=1 CrL₅X₁ heatmap_gray_cell
Cr	    0.8754	    0.1833	    0.0716
P	   -1.3017	   -0.2165	    0.0022
O	   -2.4039	    0.9355	   -0.5587
O	   -1.8228	   -1.5683	   -0.8405
O	   -2.2121	   -0.5562	    1.3916
O	    0.8935	    0.5923	   -2.9005
O	    0.1713	    2.9349	    1.0503
O	    3.6922	    1.2585	    0.1040
C	   -2.0260	    1.8432	   -1.5850
C	   -3.1943	   -1.9284	   -0.8719
C	   -2.1918	    0.4218	    2.4166
C	    0.8571	    0.4479	   -1.7246
C	    0.4395	    1.8426	    0.6685
C	    2.6127	    0.7843	    0.1006
C	    1.3983	   -0.8391	    2.0250
C	    0.9240	   -1.7374	    1.0319
C	    1.5617	   -1.9513	   -0.2272
C	    3.0502	   -2.1389	   -0.4157
H	   -2.9260	    2.4491	   -1.8235
H	   -1.2104	    2.5199	   -1.2548
H	   -1.6888	    1.3223	   -2.5068
H	   -3.5193	   -2.3866	    0.0879
H	   -3.8415	   -1.0456	   -1.0690
H	   -3.3290	   -2.6660	   -1.6910
H	   -1.1521	    0.7196	    2.6793
H	   -2.7426	    1.3410	    2.1134
H	   -2.6825	   -0.0157	    3.3114
H	    0.9429	   -2.5120	   -0.9502
H	    0.7693	   -0.6780	    2.9154
H	    2.4759	   -0.6849	    2.1881
H	   -0.0812	   -2.1705	    1.1789
H	    3.4027	   -1.7208	   -1.3817
H	    3.6382	   -1.6432	    0.3814
H	    3.3274	   -3.2224	   -0.4095
