52
KIBNAK Cr total_charge=+1 EN=13 VN=4 CrL₂X₄ heatmap_gray_cell
Cr	   -2.3351	   -0.0231	   -0.4728
N	   -2.1928	    1.6015	   -0.0055
O	   -2.2618	    2.7178	    0.3340
N	   -2.0337	   -0.6676	    1.0636
O	   -1.9900	   -1.1063	    2.1498
C	   -0.4213	   -0.2154	   -1.3522
P	    0.9778	   -0.0437	   -0.2425
C	    0.8179	    1.4209	    0.8172
C	    0.4265	    1.3092	    2.1670
C	    0.2314	    2.4698	    2.9299
C	    0.4255	    3.7351	    2.3535
C	    0.8169	    3.8458	    1.0090
C	    1.0145	    2.6933	    0.2374
C	    2.5389	    0.1485	   -1.1686
C	    3.6337	    0.8345	   -0.6001
C	    4.8483	    0.9060	   -1.2966
C	    4.9770	    0.2975	   -2.5556
C	    3.8888	   -0.3851	   -3.1225
C	    2.6710	   -0.4634	   -2.4325
C	    1.1634	   -1.5264	    0.7911
C	    0.3672	   -2.6697	    0.5824
C	    0.5839	   -3.8205	    1.3536
C	    1.5907	   -3.8353	    2.3309
C	    2.3893	   -2.6980	    2.5370
C	    2.1837	   -1.5463	    1.7669
C	   -2.9588	   -0.8725	   -2.4576
C	   -3.6098	    0.3781	   -2.2538
C	   -4.4273	    0.2612	   -1.0751
C	   -4.2704	   -1.0566	   -0.5608
C	   -3.3511	   -1.7625	   -1.4130
H	   -0.3155	    0.5804	   -2.1177
H	   -0.3004	   -1.1944	   -1.8588
H	    0.2702	    0.3198	    2.6209
H	   -0.0724	    2.3828	    3.9835
H	    0.2724	    4.6424	    2.9565
H	    0.9695	    4.8371	    0.5575
H	    1.3262	    2.7852	   -0.8145
H	    3.5360	    1.3251	    0.3799
H	    5.6989	    1.4449	   -0.8537
H	    5.9311	    0.3580	   -3.0998
H	    3.9878	   -0.8599	   -4.1098
H	    1.8241	   -1.0013	   -2.8841
H	   -0.4344	   -2.6584	   -0.1697
H	   -0.0405	   -4.7114	    1.1910
H	    1.7564	   -4.7393	    2.9355
H	    3.1817	   -2.7095	    3.2998
H	    2.8216	   -0.6637	    1.9264
H	   -2.2677	   -1.1053	   -3.2758
H	   -3.5107	    1.2698	   -2.8847
H	   -5.0541	    1.0522	   -0.6451
H	   -4.7546	   -1.4600	    0.3373
H	   -3.0302	   -2.8043	   -1.2924
