40
KIRKUR Cr total_charge=+1 EN=18 VN=1 CrL₆X₁ heatmap_gray_cell
Cr	   -0.8915	   -0.0009	   -0.3548
N	    0.7295	   -1.3548	   -0.4848
C	    1.4874	   -1.8870	   -1.4595
C	    2.6820	   -2.4217	   -0.9245
C	    2.6103	   -2.1744	    0.4430
N	    1.4299	   -1.5222	    0.6611
C	    0.7497	   -1.2351	    1.9002
N	   -0.0522	    0.0014	    1.7714
C	    0.7478	    1.2394	    1.8977
N	    1.4291	    1.5239	    0.6586
C	    2.6093	    2.1765	    0.4402
C	    2.6826	    2.4197	   -0.9279
C	    1.4891	    1.8824	   -1.4630
N	    0.7304	    1.3523	   -0.4878
C	   -1.0857	    0.0018	    2.8456
C	   -2.1064	   -1.2312	    0.2111
O	   -2.8687	   -1.9995	    0.6597
C	   -2.1055	    1.2309	    0.2089
O	   -2.8674	    2.0003	    0.6570
C	   -1.7591	    1.1949	   -1.9872
C	   -1.0943	   -0.0000	   -2.3984
C	   -1.7576	   -1.1961	   -1.9894
H	    1.1583	   -1.8537	   -2.5042
H	    3.4937	   -2.9172	   -1.4661
H	    3.2902	   -2.4209	    1.2662
H	    0.0439	   -2.0575	    2.1379
H	    1.5042	   -1.1673	    2.7136
H	    1.5015	    1.1749	    2.7121
H	    0.0406	    2.0615	    2.1322
H	    3.2878	    2.4260	    1.2635
H	    3.4946	    2.9143	   -1.4699
H	    1.1615	    1.8460	   -2.5079
H	   -1.7229	   -0.8938	    2.7468
H	   -1.7242	    0.8962	    2.7449
H	   -0.6092	    0.0032	    3.8500
H	   -1.2792	    2.1747	   -2.1392
H	   -2.8610	    1.2186	   -2.0256
H	   -0.1226	    0.0009	   -2.9146
H	   -1.2766	   -2.1753	   -2.1419
H	   -2.8595	   -1.2211	   -2.0261
