39
LUSTOK Cr total_charge=+1 EN=14 VN=5 CrL₂X₅ heatmap_gray_cell
Cr	    0.4813	   -0.4344	   -0.4902
N	   -1.1134	    0.2179	    0.0744
N	    0.3649	   -0.2712	   -2.0008
N	    1.5921	    1.1742	   -0.0863
C	   -1.3575	    0.3526	    1.5268
H	   -0.4315	    0.0051	    2.0250
C	    3.0118	    3.3471	    0.2181
H	    3.3262	    3.7270	   -0.7754
H	    3.9157	    3.1348	    0.8241
H	    2.4119	    4.1289	    0.7266
C	    0.2555	   -2.6202	    0.0225
H	   -0.6744	   -3.1351	   -0.2511
C	   -2.2244	    0.6769	   -0.7926
H	   -3.0376	    1.0050	   -0.1119
C	    1.3890	   -2.4347	   -0.8345
H	    1.4659	   -2.7408	   -1.8836
C	    2.3488	   -1.6966	   -0.0963
H	    3.3204	   -1.3542	   -0.4742
C	    1.8789	   -1.5785	    1.2741
H	    2.4194	   -1.0845	    2.0915
C	   -2.5233	   -0.5269	    1.9995
H	   -3.4952	   -0.1871	    1.5912
H	   -2.5929	   -0.4815	    3.1041
H	   -2.3761	   -1.5842	    1.7050
C	    2.2257	    2.1440	    0.0527
C	   -1.8143	    1.8884	   -1.6402
H	   -1.4238	    2.7093	   -1.0080
H	   -2.7006	    2.2664	   -2.1866
H	   -1.0423	    1.6090	   -2.3828
C	   -1.5348	    1.8308	    1.9177
H	   -0.6757	    2.4401	    1.5758
H	   -1.5938	    1.9043	    3.0213
H	   -2.4633	    2.2687	    1.5025
C	    0.6119	   -2.1635	    1.3481
H	   -0.0297	   -2.2287	    2.2344
C	   -2.7716	   -0.4764	   -1.6436
H	   -2.0180	   -0.8171	   -2.3795
H	   -3.6668	   -0.1304	   -2.1968
H	   -3.0687	   -1.3356	   -1.0113
