35
MIBROH Cr total_charge=+1 EN=17 VN=0 CrL₆ heatmap_gray_cell
C	   -0.5505	   -0.7486	    0.0431
C	    0.0381	   -1.1749	   -1.2009
H	   -0.4620	   -0.9204	   -2.1474
C	    1.2697	   -1.8741	   -1.2302
H	    1.7233	   -2.1561	   -2.1893
C	    1.9572	   -2.1026	   -0.0042
H	    2.9470	   -2.5809	   -0.0154
C	    1.3945	   -1.6965	    1.2320
H	    1.9502	   -1.8614	    2.1652
C	    0.1583	   -0.9767	    1.2824
C	   -0.4089	   -0.5675	    2.6158
H	   -0.9921	    0.3699	    2.5672
H	    0.3998	   -0.4220	    3.3559
H	   -1.0785	   -1.3629	    3.0062
C	   -1.8435	   -0.0263	    0.0131
C	   -1.9646	    1.3523	    0.2558
H	   -1.0480	    1.9075	    0.4953
C	   -3.2025	    1.9939	    0.1552
H	   -3.2818	    3.0756	    0.3387
C	   -4.3350	    1.2440	   -0.2062
H	   -5.3259	    1.7055	   -0.3166
C	   -4.1931	   -0.1190	   -0.4264
H	   -5.0386	   -0.7642	   -0.7025
C	   -2.9070	   -2.1958	   -0.5163
H	   -2.4608	   -2.4186	   -1.5036
H	   -3.9256	   -2.6168	   -0.4672
H	   -2.2742	   -2.6479	    0.2680
C	    1.5727	    1.3841	    1.1164
C	    3.2860	    0.2794	   -0.4233
C	    1.1683	    1.3251	   -1.4134
N	   -2.9823	   -0.7365	   -0.3049
O	    1.5961	    2.2326	    1.9152
O	    4.4237	    0.4234	   -0.6031
O	    0.9410	    2.1338	   -2.2203
Cr	    1.4758	    0.0395	   -0.1339
