29
NUCZUI Cr total_charge=-1 EN=17 VN=0 CrL₅ heatmap_gray_cell
Cr	   -1.1755	    0.5962	    0.0475
S	    1.9811	   -1.2174	   -0.0359
F	    4.0618	    0.1897	   -0.8119
F	    2.1868	    0.9421	   -1.6345
F	    2.7122	    1.3590	    0.4420
O	    1.2955	    0.2379	    2.6743
O	   -3.1256	   -2.0174	    0.1801
O	    2.9169	   -1.7910	    0.9554
O	    1.7562	   -1.9006	   -1.3384
O	    0.1830	    3.2618	    0.3060
O	   -3.7697	    1.9712	   -0.5093
O	   -0.8022	    0.5690	   -2.9250
C	    0.3329	   -0.1394	    1.9985
C	    0.4050	   -0.8405	    0.6901
C	   -0.7092	   -1.5167	    0.0819
H	   -0.5124	   -2.1378	   -0.8028
C	   -2.0057	   -1.3709	    0.6337
C	   -2.1806	   -0.4320	    1.6980
H	   -3.2088	   -0.2195	    2.0262
C	   -1.0735	    0.2294	    2.2748
H	   -1.2324	    0.9664	    3.0750
C	   -3.1098	   -2.4280	   -1.1739
H	   -4.1354	   -2.7673	   -1.4159
H	   -2.4055	   -3.2725	   -1.3536
H	   -2.8279	   -1.5813	   -1.8401
C	    2.7679	    0.4517	   -0.5325
C	   -0.3362	    2.2147	    0.2056
C	   -2.7414	    1.4380	   -0.2815
C	   -0.9234	    0.5801	   -1.7544
