54
PEQMUW Cr total_charge=+1 EN=17 VN=0 CrL₆ heatmap_gray_cell
Cr	    1.8280	   -1.3546	    0.0442
P	   -0.1125	   -0.2113	   -0.9889
N	   -2.4560	   -1.6438	   -0.0638
N	   -0.2488	    1.9769	    0.9304
N	   -2.8854	    0.4103	   -0.6594
N	    0.6968	    2.4873	   -0.9658
O	    1.2732	   -3.8715	   -1.5957
O	    3.4150	   -0.2070	   -2.2925
O	    2.5901	    1.0979	    1.6670
C	   -1.8594	   -0.4864	   -0.4800
O	    4.3237	   -2.7222	    1.0390
C	    0.0563	    1.4801	   -0.3042
O	    0.3415	   -2.2891	    2.5270
C	   -3.8376	   -1.4721	    0.0539
C	   -4.1106	   -0.1707	   -0.3135
C	    0.2017	    3.2936	    1.0503
C	    0.8131	    3.6121	   -0.1489
C	    1.4561	   -2.9076	   -0.9760
C	    2.7946	   -0.6548	   -1.4179
C	    2.2936	    0.1621	    1.0379
C	   -4.7394	   -2.5711	    0.4945
H	   -4.7134	   -3.4304	   -0.2075
H	   -5.7840	   -2.2151	    0.5460
H	   -4.4632	   -2.9556	    1.4980
C	   -2.7543	    1.7300	   -1.2574
H	   -2.4670	    2.4982	   -0.5124
H	   -3.7196	    2.0181	   -1.7089
H	   -1.9848	    1.6897	   -2.0516
C	   -1.8092	   -2.9312	    0.1474
H	   -2.2238	   -3.6796	   -0.5549
H	   -1.9610	   -3.2745	    1.1878
H	   -0.7307	   -2.8230	   -0.0395
C	    3.3651	   -2.1942	    0.6524
C	   -0.8708	    1.2198	    2.0047
H	   -1.9658	    1.3908	    2.0372
H	   -0.4279	    1.5206	    2.9708
H	   -0.6749	    0.1458	    1.8435
C	    1.2250	    2.3990	   -2.3210
H	    2.3279	    2.3046	   -2.3065
H	    0.9405	    3.3006	   -2.8949
H	    0.8003	    1.4973	   -2.8022
C	   -5.4061	    0.5607	   -0.3806
H	   -5.3885	    1.4954	    0.2167
H	   -6.2187	   -0.0733	    0.0176
H	   -5.6822	    0.8309	   -1.4218
C	    0.9004	   -1.9555	    1.5598
C	    1.5114	    4.8509	   -0.5873
H	    2.5726	    4.6494	   -0.8417
H	    1.4992	    5.6053	    0.2197
H	    1.0351	    5.3062	   -1.4802
C	    0.0525	    4.0845	    2.3018
H	   -1.0010	    4.1301	    2.6453
H	    0.3990	    5.1216	    2.1433
H	    0.6599	    3.6540	    3.1259
