39
PHCXCR Cr total_charge=-1 EN=18 VN=1 CrL₅X₁ heatmap_gray_cell
Cr	    0.0000	    0.7883	   -0.9046
S	    0.0000	    2.2468	    1.7316
O	   -2.0003	   -0.0056	   -2.9947
O	    0.0015	    3.6410	   -1.8387
O	    1.9990	   -0.0075	   -2.9952
O	    0.0000	    1.8467	    3.2080
C	    1.2673	    1.3717	    0.7937
C	    1.2471	   -0.0508	    0.6822
C	   -0.0000	   -0.7517	    0.6592
C	   -1.2472	   -0.0507	    0.6822
C	   -1.2673	    1.3718	    0.7937
C	   -1.2328	    0.3101	   -2.1554
C	    0.0008	    2.5200	   -1.4848
C	    1.2320	    0.3088	   -2.1556
C	   -2.5166	   -0.8218	    0.5740
C	   -3.6257	   -0.4607	    1.3695
C	   -4.8227	   -1.1899	    1.3107
C	   -4.9334	   -2.2992	    0.4576
C	   -3.8348	   -2.6700	   -0.3369
C	   -2.6415	   -1.9391	   -0.2812
C	    2.5166	   -0.8219	    0.5740
C	    2.6413	   -1.9395	   -0.2810
C	    3.8346	   -2.6704	   -0.3366
C	    4.9333	   -2.2994	    0.4576
C	    4.8227	   -1.1899	    1.3104
C	    3.6258	   -0.4607	    1.3692
H	    2.2315	    1.8966	    0.7184
H	   -0.0001	   -1.8488	    0.6095
H	   -2.2314	    1.8967	    0.7184
H	   -3.5267	    0.3936	    2.0562
H	   -5.6743	   -0.8922	    1.9429
H	   -5.8736	   -2.8708	    0.4076
H	   -3.9147	   -3.5295	   -1.0211
H	   -1.7958	   -2.2050	   -0.9324
H	    1.7955	   -2.2056	   -0.9320
H	    3.9143	   -3.5301	   -1.0207
H	    5.8735	   -2.8710	    0.4076
H	    5.6745	   -0.8921	    1.9425
H	    3.5269	    0.3938	    2.0557
