67
QIDZUY Cr total_charge=+1 EN=17 VN=0 CrL₆ heatmap_gray_cell
Cr	   -3.0801	   -1.1747	   -0.1328
P	    1.8337	   -0.4428	    0.0323
O	   -3.7722	    1.3939	    1.2545
O	   -3.2556	    0.3343	   -2.7216
O	   -6.0150	   -1.8042	   -0.3167
C	   -3.5227	    0.3923	    0.7101
C	   -3.2100	   -0.2588	   -1.7179
C	   -4.8808	   -1.5553	   -0.2491
C	   -0.9035	   -1.2146	    0.0289
C	   -1.3275	   -2.1265	   -0.9948
H	   -0.9289	   -2.0114	   -2.0126
C	   -2.2695	   -3.1523	   -0.7146
H	   -2.6125	   -3.8190	   -1.5165
C	   -2.8407	   -3.2377	    0.5888
H	   -3.6255	   -3.9808	    0.7892
C	   -2.4276	   -2.3568	    1.6239
H	   -2.8924	   -2.4094	    2.6172
C	   -1.4865	   -1.3283	    1.3301
H	   -1.2068	   -0.6026	    2.1071
C	    0.0567	   -0.1151	   -0.2839
C	   -0.2712	    1.0520	   -0.8149
C	   -0.5581	    2.2332	   -1.3376
H	   -0.5511	    2.3044	   -2.4416
C	   -0.8634	    3.4639	   -0.5955
C	   -0.8593	    4.6975	   -1.2847
H	   -0.6592	    4.7130	   -2.3672
C	   -1.1010	    5.8947	   -0.5983
H	   -1.0946	    6.8489	   -1.1457
C	   -1.3595	    5.8754	    0.7814
H	   -1.5585	    6.8149	    1.3182
C	   -1.3845	    4.6507	    1.4730
H	   -1.6154	    4.6301	    2.5484
C	   -1.1408	    3.4538	    0.7922
H	   -1.2038	    2.4944	    1.3275
C	    2.4699	   -1.5058	   -1.2898
C	    3.4777	   -2.4563	   -1.0218
H	    3.8484	   -2.6010	    0.0038
C	    4.0015	   -3.2200	   -2.0750
H	    4.7855	   -3.9638	   -1.8703
C	    3.5264	   -3.0374	   -3.3839
H	    3.9386	   -3.6420	   -4.2054
C	    2.5263	   -2.0865	   -3.6492
H	    2.1566	   -1.9444	   -4.6753
C	    1.9953	   -1.3166	   -2.6057
H	    1.2142	   -0.5687	   -2.8113
C	    2.0126	   -1.3039	    1.6151
C	    2.5878	   -0.6524	    2.7262
H	    2.9802	    0.3706	    2.6301
C	    2.6672	   -1.3236	    3.9552
H	    3.1204	   -0.8194	    4.8213
C	    2.1776	   -2.6336	    4.0771
H	    2.2437	   -3.1558	    5.0433
C	    1.6110	   -3.2840	    2.9676
H	    1.2344	   -4.3132	    3.0623
C	    1.5259	   -2.6263	    1.7340
H	    1.0865	   -3.1415	    0.8671
C	    2.7237	    1.1288	    0.0429
C	    2.2032	    2.2153	    0.7812
H	    1.2602	    2.1193	    1.3382
C	    2.8847	    3.4384	    0.7831
H	    2.4681	    4.2886	    1.3430
C	    4.0824	    3.5777	    0.0615
H	    4.6134	    4.5412	    0.0627
C	    4.6013	    2.4949	   -0.6664
H	    5.5373	    2.6074	   -1.2328
C	    3.9248	    1.2666	   -0.6831
H	    4.3240	    0.4226	   -1.2649
