46
QIRWOF Cr total_charge=+1 EN=14 VN=1 CrL₄X₁ heatmap_gray_cell
C	   -2.2510	   -1.1083	   -0.9906
H	   -1.6977	   -1.9653	   -1.4014
C	   -3.6440	   -1.0443	   -1.0132
H	   -4.2066	   -1.8841	   -1.4455
C	   -4.3022	    0.0843	   -0.4978
H	   -5.3987	    0.1549	   -0.5027
C	   -3.5147	    1.1324	    0.0160
H	   -3.9789	    2.0461	    0.4157
C	   -2.1272	    1.0194	    0.0081
C	   -1.1718	    2.0841	    0.4455
H	   -0.8953	    2.7019	   -0.4344
H	   -1.6179	    2.7737	    1.1962
C	    1.2383	    2.3043	    0.8358
H	    1.0371	    3.3242	    1.2388
H	    2.0558	    1.8737	    1.4457
C	    1.6490	    2.3746	   -0.6234
H	    2.6029	    2.9325	   -0.7467
H	    0.8890	    2.9185	   -1.2162
C	    3.1290	    0.4582	   -0.9670
H	    3.1520	   -0.6032	   -1.2772
H	    3.3981	    0.5324	    0.1035
H	    3.8733	    1.0343	   -1.5594
C	    1.4440	    1.0033	   -2.6359
H	    2.0915	    1.7300	   -3.1732
H	    0.3829	    1.2869	   -2.7769
H	    1.5968	   -0.0111	   -3.0451
C	   -0.1688	    0.9478	    2.3406
H	   -0.0891	    1.7792	    3.0774
H	   -1.2110	    0.5730	    2.3937
C	    0.8077	   -0.1624	    2.6667
H	    0.5889	   -0.6047	    3.6645
H	    1.8441	    0.2265	    2.7145
C	    2.0240	   -1.9856	    1.6149
H	    2.8822	   -1.3212	    1.4017
H	    1.9762	   -2.7649	    0.8342
H	    2.1755	   -2.4536	    2.6123
C	   -0.3823	   -2.1249	    1.7989
H	   -0.2403	   -2.7269	    2.7230
H	   -0.4421	   -2.8067	    0.9298
H	   -1.3283	   -1.5597	    1.8744
Cl	    0.9379	   -2.1509	   -1.5562
Cr	    0.4380	   -0.3490	   -0.2892
N	   -1.4770	   -0.1003	   -0.4662
N	    0.0568	    1.4229	    0.9542
N	    1.7597	    0.9966	   -1.1802
N	    0.7638	   -1.1968	    1.6007
