48
QIRWIZ Cr total_charge=+1 EN=14 VN=1 CrL₄X₁ heatmap_gray_cell
C	    1.0763	    0.9101	    2.2209
C	    1.1525	    2.1247	    1.3159
C	    2.5921	    1.2652	   -0.4676
H	    2.5726	    0.8445	   -1.4910
H	    2.9547	    0.4970	    0.2386
H	    3.2973	    2.1261	   -0.4456
C	    0.8583	    2.8324	   -0.9948
H	    1.5673	    3.6774	   -0.8529
H	   -0.1606	    3.1876	   -0.7609
H	    0.8847	    2.4900	   -2.0451
Cl	    0.0036	   -0.0037	   -2.7163
Cr	    0.0004	   -0.0007	   -0.4453
H	    0.9238	    1.2199	    3.2807
H	    2.0333	    0.3546	    2.1941
H	    0.2474	    2.7538	    1.4310
H	    2.0205	    2.7675	    1.5893
N	   -0.0028	    0.0021	    1.7548
N	    1.2193	    1.6965	   -0.1044
C	   -2.3906	    1.6108	   -0.4744
H	   -2.0173	    1.8008	   -1.4988
H	   -1.9042	    2.3100	    0.2292
H	   -3.4884	    1.7928	   -0.4516
C	   -2.8816	   -0.6759	   -0.9958
H	   -3.9681	   -0.4842	   -0.8552
H	   -2.6797	   -1.7352	   -0.7589
H	   -2.5977	   -0.4847	   -2.0464
N	   -2.0791	    0.2071	   -0.1071
C	   -1.3293	    0.4840	    2.2179
C	   -2.4179	   -0.0608	    1.3135
H	   -1.5225	    0.2007	    3.2784
H	   -1.3270	    1.5905	    2.1872
H	   -2.5094	   -1.1588	    1.4318
H	   -3.4093	    0.3697	    1.5843
C	   -0.1978	   -2.8776	   -0.4673
H	   -0.5487	   -2.6505	   -1.4920
H	   -1.0469	   -2.8076	    0.2359
H	    0.1955	   -3.9186	   -0.4436
C	    2.0281	   -2.1588	   -0.9867
H	    2.4057	   -3.1950	   -0.8430
H	    2.8435	   -1.4531	   -0.7501
H	    1.7221	   -2.0111	   -2.0381
N	    0.8606	   -1.9039	   -0.1006
C	    0.2422	   -1.3863	    2.2220
C	    1.2598	   -2.0592	    1.3211
H	    0.5820	   -1.4093	    3.2832
H	   -0.7173	   -1.9374	    2.1905
H	    2.2560	   -1.5885	    1.4395
H	    1.3827	   -3.1321	    1.5955
