83
QIXGIQ Cr total_charge=-1 EN=18 VN=1 CrL₅X₁ heatmap_gray_cell
Cr	   -0.8299	    0.1532	   -0.8940
P	    1.2324	    0.0929	   -0.0282
N	   -0.6672	    1.7649	   -1.7153
N	   -0.6593	    2.8270	   -2.1787
N	   -0.3953	   -0.8101	   -2.3758
N	   -0.1736	   -1.4885	   -3.2861
C	   -1.3944	   -0.3628	    1.0884
C	   -2.0588	    0.8717	    0.7412
C	   -2.8963	    0.5903	   -0.4109
C	   -2.7655	   -0.8073	   -0.7366
C	   -1.8551	   -1.4163	    0.2141
C	   -1.5541	   -2.8786	    0.3795
H	   -0.5290	   -2.9935	    0.7845
H	   -1.5492	   -3.3782	   -0.6131
C	   -2.5330	   -3.6020	    1.3208
H	   -2.4990	   -3.1551	    2.3358
H	   -2.2871	   -4.6816	    1.4160
H	   -3.5794	   -3.5213	    0.9617
C	   -3.4604	   -1.5182	   -1.8664
H	   -2.7904	   -2.3084	   -2.2660
H	   -3.5920	   -0.8055	   -2.7079
C	   -4.8225	   -2.1282	   -1.5001
H	   -4.7249	   -2.8817	   -0.6920
H	   -5.2923	   -2.6298	   -2.3729
H	   -5.5263	   -1.3510	   -1.1367
C	   -3.7578	    1.5866	   -1.1379
H	   -3.8497	    1.2699	   -2.1984
H	   -3.2351	    2.5657	   -1.1774
C	   -5.1613	    1.7719	   -0.5402
H	   -5.1099	    2.1349	    0.5066
H	   -5.7227	    0.8147	   -0.5248
H	   -5.7581	    2.5065	   -1.1219
C	   -1.9500	    2.1663	    1.4960
H	   -2.0740	    3.0181	    0.7934
H	   -0.9229	    2.2584	    1.9035
C	   -2.9524	    2.2951	    2.6557
H	   -2.8462	    3.2681	    3.1818
H	   -2.7940	    1.4879	    3.4003
H	   -4.0003	    2.2134	    2.3007
C	   -0.3535	   -0.5063	    2.1431
C	   -0.6761	   -0.8044	    3.4810
H	   -1.7325	   -0.9630	    3.7504
C	    0.3290	   -0.8870	    4.4608
H	    0.0641	   -1.1174	    5.5050
C	    1.6696	   -0.6605	    4.1066
H	    2.4586	   -0.7087	    4.8746
C	    2.0051	   -0.3673	    2.7749
H	    3.0560	   -0.1741	    2.5100
C	    1.0057	   -0.3014	    1.7793
C	    2.3521	    1.6243	    0.0312
H	    3.2610	    1.3985	    0.6368
C	    1.5936	    2.7787	    0.7053
H	    0.6125	    2.8933	    0.2005
H	    1.3766	    2.5126	    1.7613
C	    2.3603	    4.1056	    0.6346
H	    1.7560	    4.9169	    1.0956
H	    3.2978	    4.0312	    1.2344
C	    2.7173	    4.4580	   -0.8146
H	    3.2688	    5.4225	   -0.8623
H	    1.7759	    4.5878	   -1.3936
C	    3.5380	    3.3319	   -1.4545
H	    4.5089	    3.2358	   -0.9138
H	    3.7887	    3.5823	   -2.5082
C	    2.7855	    1.9945	   -1.4000
H	    3.4175	    1.1899	   -1.8312
H	    1.8790	    2.0574	   -2.0375
C	    2.4755	   -1.1985	   -0.6743
H	    2.5192	   -0.9255	   -1.7548
C	    3.9080	   -1.2090	   -0.1206
H	    4.3740	   -0.2044	   -0.1896
H	    3.8792	   -1.4733	    0.9598
C	    4.7833	   -2.2374	   -0.8572
H	    4.8843	   -1.9251	   -1.9215
H	    5.8119	   -2.2450	   -0.4334
C	    4.1699	   -3.6429	   -0.8039
H	    4.1718	   -3.9955	    0.2534
H	    4.7960	   -4.3629	   -1.3750
C	    2.7275	   -3.6389	   -1.3264
H	    2.2781	   -4.6513	   -1.2322
H	    2.7254	   -3.3965	   -2.4129
C	    1.8627	   -2.6032	   -0.5971
H	    1.7593	   -2.8920	    0.4743
H	    0.8433	   -2.5789	   -1.0247
