30
REXQUI Cr total_charge=-1 EN=18 VN=1 CrL₅X₁ heatmap_gray_cell
Cr	    0.8206	    0.0116	    0.1362
N	   -2.0298	    1.0736	   -0.1612
N	   -2.0170	   -1.0930	   -0.1193
O	    0.9337	    2.2557	    2.1048
O	    0.9310	   -2.0617	    2.2849
C	    0.8450	    1.3450	    1.3280
C	    0.8463	   -1.2151	    1.4380
C	   -1.1410	   -0.0019	   -0.0202
C	   -3.3478	    0.6645	   -0.3200
H	   -4.1783	    1.3706	   -0.4241
C	   -3.3397	   -0.7053	   -0.2961
H	   -4.1613	   -1.4246	   -0.3777
C	   -1.6056	    2.4578	   -0.1349
H	   -2.4642	    3.1028	   -0.4129
H	   -0.7690	    2.6056	   -0.8453
H	   -1.2230	    2.7399	    0.8658
C	   -1.5776	   -2.4708	   -0.0521
H	   -1.0180	   -2.6523	    0.8856
H	   -0.8912	   -2.7058	   -0.8907
H	   -2.4661	   -3.1329	   -0.1038
C	    0.9589	   -0.1179	   -2.0887
H	    0.0863	   -0.1701	   -2.7540
C	    1.6360	   -1.2390	   -1.5163
H	    1.4006	   -2.2970	   -1.6860
C	    2.6848	   -0.7258	   -0.6689
H	    3.3925	   -1.3280	   -0.0859
C	    2.6619	    0.7061	   -0.7513
H	    3.3511	    1.3933	   -0.2450
C	    1.5990	    1.0850	   -1.6505
H	    1.3355	    2.1070	   -1.9503
