24
RIQQEN Cr total_charge=-1 EN=18 VN=1 CrL₅X₁ heatmap_gray_cell
Cr	    0.5422	    0.1572	    0.0488
O	    2.7171	    2.1930	    0.3488
O	    1.4461	   -0.7044	    2.8242
O	    0.6099	    1.0117	   -2.8723
O	    2.4355	   -1.9802	   -0.8638
O	   -0.9929	    1.4053	    0.7120
O	   -3.1961	    1.8879	    0.4885
N	   -1.3039	   -1.1091	   -0.1662
C	    1.8581	    1.3961	    0.2360
C	    0.9987	   -0.3723	    1.7906
C	    0.4727	    0.6999	   -1.7471
C	    1.7000	   -1.1240	   -0.5044
C	   -2.1975	    1.1818	    0.3085
C	   -2.3385	   -0.1188	   -0.5273
H	   -3.3662	   -0.5378	   -0.4134
H	   -2.1938	    0.1553	   -1.5931
C	   -1.6442	   -1.7251	    1.1243
H	   -0.8414	   -2.4225	    1.4282
H	   -2.6117	   -2.2838	    1.0592
H	   -1.7334	   -0.9335	    1.8906
C	   -1.1687	   -2.1461	   -1.1942
H	   -0.3575	   -2.8462	   -0.9169
H	   -0.8995	   -1.6770	   -2.1589
H	   -2.1202	   -2.7208	   -1.3207
