48
SOVQUP Cr total_charge=+1 EN=17 VN=0 CrL₆ heatmap_gray_cell
Cr	    2.1922	    0.0390	   -0.1214
N	   -2.7199	    0.0397	    0.2398
H	   -3.0397	    0.1667	    1.2194
O	    0.2082	   -1.8513	    1.6667
O	    1.1860	    1.4538	    2.3155
O	    0.6568	    2.1112	   -1.6324
O	    4.6956	    1.7044	   -0.1224
C	   -1.1671	   -1.5638	    1.4428
H	   -1.7110	   -2.5061	    1.1985
H	   -1.5558	   -1.1795	    2.4096
C	   -1.3179	   -0.5270	    0.3249
H	   -0.6801	    0.3361	    0.5963
C	   -0.7798	   -1.1102	   -0.9782
H	   -0.8360	   -0.3827	   -1.8117
H	   -1.3470	   -2.0175	   -1.2786
C	    0.6719	   -1.4433	   -0.7100
C	    1.6762	   -1.3513	   -1.7316
H	    1.3737	   -1.0912	   -2.7563
C	    3.0437	   -1.5384	   -1.4277
H	    3.8027	   -1.4228	   -2.2124
C	    3.4366	   -1.7892	   -0.0758
H	    4.5020	   -1.8685	    0.1807
C	    2.4665	   -1.8953	    0.9459
H	    2.7470	   -2.0594	    1.9945
C	    1.0808	   -1.7478	    0.6227
C	   -3.7337	   -0.8711	   -0.4193
H	   -3.4635	   -1.9105	   -0.1477
H	   -3.5985	   -0.7616	   -1.5131
C	   -5.1626	   -0.5648	    0.0167
H	   -5.2326	   -0.6605	    1.1238
H	   -5.4226	    0.4873	   -0.2265
C	   -6.1648	   -1.5099	   -0.6501
H	   -7.1941	   -1.2832	   -0.3141
H	   -5.9564	   -2.5694	   -0.3988
H	   -6.1440	   -1.4099	   -1.7540
C	   -2.6852	    1.4410	   -0.3612
H	   -1.9955	    1.3963	   -1.2265
H	   -3.7023	    1.6544	   -0.7404
C	   -2.2440	    2.4931	    0.6499
H	   -2.9932	    2.5461	    1.4717
H	   -1.2772	    2.2050	    1.1163
C	   -2.0876	    3.8630	   -0.0153
H	   -1.8039	    4.6244	    0.7354
H	   -1.2926	    3.8357	   -0.7866
H	   -3.0301	    4.1975	   -0.4939
C	    1.6343	    0.9077	    1.3799
C	    1.3226	    1.3316	   -1.0568
C	    3.7274	    1.0613	   -0.1184
