62
TAQZEQ Cr total_charge=+1 EN=18 VN=3 CrL₅X₃ heatmap_gray_cell
Cr	   -0.7848	   -0.0823	   -0.2590
C	   -1.9188	   -1.7864	    0.5287
C	   -1.5467	   -3.2362	    0.4652
H	   -1.4468	   -3.5925	   -0.5773
H	   -2.3268	   -3.8562	    0.9555
H	   -0.5929	   -3.4472	    0.9873
C	   -1.6626	   -0.8906	    1.6254
C	   -0.9726	   -1.2285	    2.9100
H	   -0.3636	   -0.3854	    3.2909
H	   -0.3161	   -2.1149	    2.8138
H	   -1.7200	   -1.4758	    3.6932
C	   -2.3002	    0.3672	    1.3325
C	   -2.3964	    1.5355	    2.2631
H	   -1.5164	    1.6105	    2.9292
H	   -3.2933	    1.4277	    2.9094
H	   -2.4998	    2.4915	    1.7159
C	   -2.9629	    0.2505	    0.0615
C	   -3.8471	    1.2883	   -0.5593
H	   -3.9025	    1.1839	   -1.6587
H	   -3.5026	    2.3154	   -0.3344
H	   -4.8802	    1.1907	   -0.1637
C	   -2.7254	   -1.0747	   -0.4441
C	   -3.3300	   -1.6579	   -1.6845
H	   -3.4623	   -0.8949	   -2.4748
H	   -4.3326	   -2.0788	   -1.4582
H	   -2.7146	   -2.4755	   -2.1043
C	    0.9795	   -0.8186	    0.3407
H	    0.8691	   -1.5870	    1.1313
N	    2.2487	   -0.6707	    0.0232
C	    3.2999	   -1.4979	    0.7110
H	    4.2572	   -1.1837	    0.2527
C	    3.0994	   -2.9857	    0.4175
H	    3.0482	   -3.1782	   -0.6716
H	    2.1689	   -3.3711	    0.8824
H	    3.9438	   -3.5689	    0.8332
C	    3.3586	   -1.1750	    2.2049
H	    3.5171	   -0.0927	    2.3782
H	    4.1960	   -1.7250	    2.6763
H	    2.4268	   -1.4786	    2.7243
C	    2.7178	    0.2739	   -1.0280
H	    1.7906	    0.7602	   -1.3858
C	    3.3643	   -0.4708	   -2.2004
H	    2.6840	   -1.2329	   -2.6243
H	    4.3152	   -0.9618	   -1.9111
H	    3.6033	    0.2552	   -3.0019
C	    3.6388	    1.3432	   -0.4329
H	    3.1691	    1.8459	    0.4337
H	    3.8560	    2.1084	   -1.2037
H	    4.6127	    0.9253	   -0.1075
C	   -0.1642	   -1.0932	   -1.6506
O	    0.2136	   -1.7636	   -2.5295
C	   -0.9443	    1.0973	   -1.6479
O	   -1.0543	    1.8584	   -2.5252
C	    0.0682	    1.4820	    0.4096
N	    0.5507	    2.4778	    0.8408
C	    1.0373	    3.7853	    1.1235
H	    1.9862	    3.6910	    1.6941
H	    0.3102	    4.2776	    1.8051
C	    1.2404	    4.6108	   -0.1489
H	    1.5907	    5.6259	    0.1195
H	    0.2941	    4.7042	   -0.7163
H	    1.9984	    4.1441	   -0.8076
