28
TUTJOH Cr total_charge=-1 EN=18 VN=1 CrL₅X₁ heatmap_gray_cell
Cr	    1.7314	    0.0718	    0.0002
S	   -0.2447	   -0.4015	    1.4491
S	   -0.2447	   -0.3934	   -1.4513
C	    2.2076	   -1.7394	   -0.0048
C	    2.9426	    0.3781	   -1.3166
C	    2.9427	    0.3707	    1.3185
C	    1.2970	    1.8924	    0.0053
C	   -1.1386	   -0.6002	   -0.0017
C	   -3.2747	   -0.7593	   -1.2216
C	   -3.9445	    0.6222	   -1.2672
C	   -4.7742	    0.8686	    0.0024
C	   -3.9445	    0.6152	    1.2707
C	   -3.2747	   -0.7660	    1.2174
N	   -2.4882	   -0.8982	   -0.0025
O	    2.5697	   -2.8547	   -0.0077
O	    3.7380	    0.5801	   -2.1663
O	    3.7383	    0.5678	    2.1693
O	    1.0815	    3.0453	    0.0084
H	   -2.5980	   -0.9115	   -2.0852
H	   -4.0470	   -1.5635	   -1.2343
H	   -3.1374	    1.3817	   -1.3526
H	   -4.5770	    0.7119	   -2.1767
H	   -5.6525	    0.1810	    0.0005
H	   -5.1864	    1.9003	    0.0053
H	   -4.5770	    0.6999	    2.1806
H	   -3.1374	    1.3742	    1.3602
H	   -4.0470	   -1.5702	    1.2257
H	   -2.5980	   -0.9230	    2.0802
