67
WAFMAR Cr total_charge=-1 EN=18 VN=1 CrL₅X₁ heatmap_gray_cell
Cr	   -0.0102	    0.0071	    1.4444
C	   -0.6845	   -1.0161	   -0.3788
C	    0.7607	   -0.9755	   -0.3837
C	    1.1585	    0.4197	   -0.3698
C	   -0.0352	    1.2314	   -0.3912
C	   -1.1813	    0.3423	   -0.3938
C	   -0.6106	    1.3350	    2.5073
O	   -1.0180	    2.2018	    3.2023
C	    1.4414	   -0.1610	    2.4983
O	    2.4154	   -0.2721	    3.1623
C	   -0.9033	   -1.1437	    2.5081
O	   -1.5102	   -1.8926	    3.1941
C	   -1.2249	   -3.4003	    0.2558
C	   -1.9618	   -4.5767	    0.0716
C	   -2.9957	   -4.6280	   -0.8784
C	   -3.2804	   -3.4886	   -1.6471
C	   -2.5377	   -2.3120	   -1.4691
C	   -1.4995	   -2.2468	   -0.5124
C	    1.4300	   -3.0787	   -1.5671
C	    2.3040	   -4.1551	   -1.7766
C	    3.4507	   -4.3007	   -0.9799
C	    3.7086	   -3.3585	    0.0304
C	    2.8315	   -2.2879	    0.2485
C	    1.6737	   -2.1283	   -0.5476
C	    3.0007	    1.9400	    0.4298
C	    4.2948	    2.4613	    0.3115
C	    5.1683	    1.9789	   -0.6785
C	    4.7300	    0.9720	   -1.5531
C	    3.4293	    0.4576	   -1.4439
C	    2.5441	    0.9343	   -0.4510
C	   -1.0118	    3.5132	    0.1220
C	   -1.0851	    4.8906	   -0.1241
C	   -0.2403	    5.4937	   -1.0706
C	    0.6777	    4.6987	   -1.7747
C	    0.7478	    3.3189	   -1.5347
C	   -0.0898	    2.7006	   -0.5768
C	   -3.5730	    0.2282	    0.3931
C	   -4.9245	    0.5662	    0.2497
C	   -5.3379	    1.4314	   -0.7785
C	   -4.3829	    1.9488	   -1.6679
C	   -3.0307	    1.5992	   -1.5354
C	   -2.6029	    0.7345	   -0.5017
H	   -0.4285	   -3.3555	    1.0109
H	   -1.7315	   -5.4611	    0.6859
H	   -3.5796	   -5.5518	   -1.0159
H	   -4.0882	   -3.5133	   -2.3956
H	   -2.7585	   -1.4258	   -2.0814
H	    0.5395	   -2.9633	   -2.2022
H	    2.0869	   -4.8845	   -2.5732
H	    4.1386	   -5.1453	   -1.1431
H	    4.6009	   -3.4627	    0.6675
H	    3.0279	   -1.5726	    1.0584
H	    2.3183	    2.2898	    1.2180
H	    4.6303	    3.2440	    1.0098
H	    6.1900	    2.3815	   -0.7625
H	    5.4062	    0.5817	   -2.3302
H	    3.0860	   -0.3254	   -2.1360
H	   -1.6617	    3.0593	    0.8805
H	   -1.8077	    5.5008	    0.4399
H	   -0.2964	    6.5778	   -1.2570
H	    1.3459	    5.1542	   -2.5227
H	    1.4602	    2.7016	   -2.1002
H	   -3.2392	   -0.4233	    1.2137
H	   -5.6626	    0.1602	    0.9593
H	   -6.3996	    1.7057	   -0.8816
H	   -4.6921	    2.6308	   -2.4759
H	   -2.2861	    1.9987	   -2.2398
