37
WALPOO Cr total_charge=-1 EN=18 VN=1 CrL₅X₁ heatmap_gray_cell
Cr	   -1.0285	    0.0004	    0.2546
P	    1.0871	   -0.0003	   -0.3629
C	   -0.6544	   -1.2632	    1.4633
O	   -0.4146	   -2.1163	    2.2680
C	   -0.6533	    1.2637	    1.4633
O	   -0.4126	    2.1165	    2.2680
C	   -2.2342	   -1.1634	   -1.1833
C	   -1.7111	    0.0000	   -1.8369
C	   -2.2335	    1.1642	   -1.1839
C	   -3.0527	    0.7166	   -0.0881
C	   -3.0531	   -0.7148	   -0.0877
C	    1.7350	    1.4124	   -1.4419
C	    1.4740	    2.7883	   -0.8326
C	    2.3462	   -0.0004	    1.0332
C	    3.8373	   -0.0003	    0.7026
C	    1.7343	   -1.4137	   -1.4414
C	    1.4716	   -2.7893	   -0.8321
H	   -2.0320	   -2.2059	   -1.4575
H	   -1.0582	   -0.0004	   -2.7204
H	   -2.0306	    2.2064	   -1.4587
H	   -3.5872	    1.3613	    0.6202
H	   -3.5880	   -1.3588	    0.6209
H	    2.8144	    1.2642	   -1.6720
H	    1.1898	    1.3099	   -2.4056
H	    0.3966	    2.8972	   -0.5952
H	    2.0192	    2.9213	    0.1249
H	    1.7803	    3.6116	   -1.5141
H	    2.0690	    0.8799	    1.6505
H	    2.0691	   -0.8808	    1.6504
H	    4.4570	   -0.0005	    1.6261
H	    4.1342	   -0.8937	    0.1136
H	    4.1341	    0.8934	    0.1139
H	    1.1899	   -1.3109	   -2.4056
H	    2.8140	   -1.2666	   -1.6707
H	    1.7784	   -3.6130	   -1.5130
H	    2.0151	   -2.9225	    0.1263
H	    0.3937	   -2.8976	   -0.5963
