57
WAWJOW Cr total_charge=+1 EN=12 VN=5 CrL₁X₅ heatmap_gray_cell
Cr	   -0.0001	    0.0170	   -0.4373
P	    0.0022	    2.3144	    0.1060
N	   -0.0004	    0.1965	   -1.9489
N	   -1.6194	   -0.6427	    0.0227
N	    1.6183	   -0.6450	    0.0221
C	   -2.7072	   -1.0857	   -0.8829
H	   -3.5184	   -1.4857	   -0.2376
C	   -3.2828	    0.0863	   -1.6828
H	   -4.1210	   -0.2643	   -2.3162
H	   -2.5064	    0.5209	   -2.3428
H	   -3.6709	    0.8788	   -1.0132
C	   -2.2280	   -2.2264	   -1.7899
H	   -1.4476	   -1.8654	   -2.4881
H	   -3.0766	   -2.6152	   -2.3865
H	   -1.8102	   -3.0630	   -1.1968
C	   -1.8437	   -0.8775	    1.4651
H	   -0.9293	   -0.5051	    1.9829
C	   -3.0180	   -0.0345	    1.9884
H	   -3.0927	   -0.1345	    3.0891
H	   -3.9838	   -0.3651	    1.5580
H	   -2.8846	    1.0376	    1.7430
C	   -1.9944	   -2.3651	    1.8092
H	   -2.9210	   -2.7941	    1.3796
H	   -2.0472	   -2.4951	    2.9079
H	   -1.1346	   -2.9502	    1.4300
C	    2.7044	   -1.0918	   -0.8836
H	    3.5151	   -1.4931	   -0.2385
C	    2.2218	   -2.2323	   -1.7890
H	    1.8025	   -3.0672	   -1.1946
H	    3.0690	   -2.6237	   -2.3859
H	    1.4417	   -1.8702	   -2.4870
C	    3.2823	    0.0780	   -1.6853
H	    2.5064	    0.5139	   -2.3449
H	    4.1190	   -0.2753	   -2.3191
H	    3.6729	    0.8703	   -1.0168
C	    1.8435	   -0.8769	    1.4648
H	    0.9309	   -0.4998	    1.9826
C	    1.9893	   -2.3642	    1.8124
H	    2.0441	   -2.4917	    2.9113
H	    2.9134	   -2.7976	    1.3817
H	    1.1265	   -2.9470	    1.4365
C	    3.0212	   -0.0368	    1.9848
H	    3.9856	   -0.3722	    1.5549
H	    3.0962	   -0.1338	    3.0858
H	    2.8918	    1.0351	    1.7363
C	    0.0047	    2.6780	    1.9061
H	   -0.8951	    2.2412	    2.3808
H	    0.0054	    3.7737	    2.0754
H	    0.9055	    2.2405	    2.3784
C	    1.4551	    3.1974	   -0.5717
H	    1.3902	    4.2797	   -0.3413
H	    1.4852	    3.0492	   -1.6682
H	    2.3815	    2.7783	   -0.1363
C	   -1.4511	    3.1995	   -0.5678
H	   -1.4844	    3.0515	   -1.6642
H	   -1.3841	    4.2817	   -0.3375
H	   -2.3770	    2.7817	   -0.1300
