64
WAWKEN Cr total_charge=+1 EN=12 VN=5 CrL₁X₅ heatmap_gray_cell
Cr	   -0.6496	    0.0469	   -0.3803
P	    0.8344	   -1.4746	    0.6532
N	   -0.2665	   -0.2666	   -1.8204
N	   -2.3352	   -0.5628	   -0.1351
N	   -0.0318	    1.7019	   -0.0032
C	   -3.2380	   -1.1461	   -1.1574
H	   -4.2054	   -1.3520	   -0.6512
C	   -2.6977	   -2.4776	   -1.6868
H	   -1.7311	   -2.3221	   -2.2053
H	   -3.4136	   -2.9162	   -2.4093
H	   -2.5518	   -3.2075	   -0.8661
C	   -3.5071	   -0.1411	   -2.2846
H	   -3.8925	    0.8170	   -1.8850
H	   -4.2605	   -0.5526	   -2.9849
H	   -2.5778	    0.0628	   -2.8518
C	   -2.9291	   -0.3540	    1.2025
H	   -2.1290	    0.1070	    1.8263
C	   -3.2873	   -1.6938	    1.8656
H	   -4.1154	   -2.2051	    1.3362
H	   -3.6153	   -1.5228	    2.9098
H	   -2.4175	   -2.3799	    1.8797
C	   -4.1138	    0.6213	    1.1825
H	   -3.8325	    1.5794	    0.7047
H	   -4.4460	    0.8323	    2.2178
H	   -4.9813	    0.2036	    0.6345
C	    0.5937	    2.6777	   -0.9263
H	    0.7880	    3.5981	   -0.3346
C	   -0.3743	    3.0464	   -2.0575
H	   -0.5720	    2.1654	   -2.6994
H	    0.0673	    3.8439	   -2.6870
H	   -1.3393	    3.4145	   -1.6578
C	    1.9367	    2.1671	   -1.4548
H	    2.6238	    1.8978	   -0.6291
H	    2.4207	    2.9516	   -2.0692
H	    1.7865	    1.2712	   -2.0872
C	   -0.2476	    2.1669	    1.3825
H	   -0.7133	    1.3103	    1.9243
C	   -1.2189	    3.3508	    1.4708
H	   -0.8021	    4.2577	    0.9901
H	   -1.4177	    3.5992	    2.5318
H	   -2.1831	    3.1126	    0.9820
C	    1.0920	    2.4503	    2.0822
H	    1.7868	    1.5944	    1.9757
H	    0.9214	    2.6421	    3.1599
H	    1.5915	    3.3443	    1.6599
C	    2.5655	   -1.1038	    0.2167
C	    3.5008	   -0.6654	    1.1762
H	    3.2240	   -0.5704	    2.2362
C	    4.8107	   -0.3507	    0.7816
H	    5.5377	   -0.0104	    1.5337
C	    5.1928	   -0.4773	   -0.5626
H	    6.2209	   -0.2315	   -0.8673
C	    4.2630	   -0.9193	   -1.5187
H	    4.5594	   -1.0186	   -2.5734
C	    2.9508	   -1.2242	   -1.1359
H	    2.2192	   -1.5352	   -1.8974
C	    0.7309	   -1.4992	    2.4849
H	    0.9200	   -0.4915	    2.9003
H	    1.4668	   -2.2135	    2.9045
H	   -0.2881	   -1.8171	    2.7786
C	    0.5457	   -3.2111	    0.1416
H	   -0.4735	   -3.5177	    0.4444
H	    1.3003	   -3.8730	    0.6100
H	    0.6194	   -3.2827	   -0.9597
