28
WOKQIX Cr total_charge=-1 EN=18 VN=1 CrL₅X₁ heatmap_gray_cell
Cr	    1.5739	   -0.0032	   -0.0000
N	   -0.5918	   -0.0065	    0.0001
C	   -1.2558	   -1.2060	    0.0001
N	   -2.6874	   -1.1610	    0.0003
C	   -3.4395	    0.0044	    0.0000
N	   -2.6782	    1.1679	    0.0001
C	   -1.2539	    1.1959	    0.0001
O	   -0.7032	   -2.3086	   -0.0000
C	   -3.4274	   -2.4130	    0.0001
H	   -2.6781	   -3.2234	    0.0039
H	   -4.0762	   -2.4835	   -0.8964
H	   -4.0822	   -2.4797	    0.8925
O	   -4.6727	   -0.0078	   -0.0003
C	   -3.3627	    2.4505	   -0.0001
H	   -3.0747	    3.0413	   -0.8924
H	   -3.0746	    3.0416	    0.8919
H	   -4.4477	    2.2453	    0.0000
O	   -0.7078	    2.3018	    0.0001
C	    1.6035	   -1.3423	    1.3311
O	    1.7232	   -2.1493	    2.1641
C	    1.6030	   -1.3417	   -1.3318
O	    1.7222	   -2.1484	   -2.1651
C	    1.5992	    1.3362	    1.3313
O	    1.7168	    2.1431	    2.1646
C	    1.5995	    1.3368	   -1.3307
O	    1.7174	    2.1441	   -2.1636
C	    3.3987	   -0.0004	   -0.0001
O	    4.5758	    0.0013	   -0.0002
