38
XATCOL Cr total_charge=+1 EN=17 VN=0 CrL₆ heatmap_gray_cell
Cr	    1.6636	    0.0092	   -0.0174
O	    2.1412	   -1.2580	    2.6648
O	    4.6222	    0.5221	   -0.2240
O	    1.3570	    2.6470	    1.3885
O	   -2.7149	    2.2330	   -0.0494
H	   -2.9559	    3.1721	    0.0578
N	   -2.9261	   -0.7388	    0.2822
C	    1.9750	   -0.7603	    1.6248
C	    3.4805	    0.3258	   -0.1398
C	    1.4981	    1.6258	    0.8463
C	   -0.4298	   -0.4879	   -0.3263
C	    0.3729	   -1.6781	   -0.4012
H	    0.1679	   -2.5164	    0.2818
C	    1.4609	   -1.7782	   -1.3109
H	    2.0865	   -2.6804	   -1.3240
C	    1.8042	   -0.6522	   -2.1102
H	    2.6961	   -0.6949	   -2.7515
C	    1.0225	    0.5368	   -2.0711
H	    1.3127	    1.4110	   -2.6687
C	   -0.0627	    0.6277	   -1.1580
H	   -0.6230	    1.5688	   -1.0543
C	   -1.4795	   -0.3326	    0.7262
H	   -1.5730	    0.7190	    1.0461
H	   -1.2697	   -0.9757	    1.6022
C	   -3.4032	    0.0920	   -0.9030
H	   -2.5857	    0.0488	   -1.6477
H	   -4.2797	   -0.4371	   -1.3251
C	   -3.8049	    1.5294	   -0.6103
H	   -4.1253	    1.9480	   -1.5936
H	   -4.7048	    1.5551	    0.0482
C	   -3.8269	   -0.5638	    1.4673
H	   -4.8700	   -0.7806	    1.1730
H	   -3.7363	    0.4712	    1.8396
H	   -3.5096	   -1.2669	    2.2580
C	   -2.9291	   -2.1789	   -0.1381
H	   -3.9661	   -2.4889	   -0.3607
H	   -2.5226	   -2.7944	    0.6845
H	   -2.2977	   -2.2927	   -1.0368
