33
XATCEB Cr total_charge=+1 EN=17 VN=0 CrL₆ heatmap_gray_cell
Cr	    1.8648	    0.0021	   -0.0554
O	    1.3881	   -2.8619	   -0.8087
O	    4.6499	   -0.1478	   -1.1881
O	    2.9857	   -0.9587	    2.5618
N	   -2.6740	   -0.1774	    0.3855
N	   -4.7983	   -0.2001	   -0.1394
C	    1.6148	   -1.7538	   -0.5197
C	    3.5754	   -0.0935	   -0.7504
C	    2.5631	   -0.5870	    1.5432
C	   -0.2587	    0.3599	    0.1648
C	    0.0874	    0.4431	   -1.2304
H	   -0.4121	   -0.2137	   -1.9582
C	    1.1130	    1.3145	   -1.6685
H	    1.4065	    1.3281	   -2.7267
C	    1.8273	    2.1046	   -0.7135
H	    2.6691	    2.7286	   -1.0450
C	    1.4828	    2.0618	    0.6592
H	    2.0556	    2.6429	    1.3941
C	    0.4556	    1.1707	    1.0991
H	    0.2425	    1.0773	    2.1748
C	   -1.2801	   -0.6366	    0.6370
H	   -1.1697	   -1.6070	    0.1157
H	   -1.1739	   -0.8211	    1.7246
C	   -3.6814	   -0.9509	   -0.0610
H	   -3.6057	   -2.0141	   -0.3150
C	   -4.4921	    1.0885	    0.2666
H	   -5.2414	    1.8865	    0.2847
C	   -3.1555	    1.1024	    0.5952
H	   -2.5091	    1.9134	    0.9448
C	   -6.1131	   -0.6627	   -0.5884
H	   -6.4251	   -0.0912	   -1.4829
H	   -6.8543	   -0.5205	    0.2205
H	   -6.0546	   -1.7353	   -0.8434
