54
XATCUR Cr total_charge=+1 EN=17 VN=0 CrL₆ heatmap_gray_cell
Cr	   -3.8788	   -0.7920	    0.0040
S	    3.0365	    0.5759	   -0.4728
O	   -5.6453	    1.0128	   -1.6234
O	   -6.0409	   -2.8837	   -0.0776
O	   -5.1566	    0.3421	    2.4751
O	    2.7599	    1.1256	    1.1147
O	    1.9385	   -0.3644	   -0.7936
O	    3.2359	    1.7857	   -1.3024
N	   -0.4866	    2.4062	    0.0676
C	   -4.9766	    0.2998	   -0.9897
C	   -5.2096	   -2.0729	   -0.0455
C	   -4.6778	   -0.1093	    1.5137
C	   -2.0258	    0.3466	   -0.0403
C	   -2.3040	   -0.1846	   -1.3455
H	   -2.3956	    0.4992	   -2.2022
C	   -2.5028	   -1.5765	   -1.5480
H	   -2.7509	   -1.9567	   -2.5476
C	   -2.4967	   -2.4506	   -0.4257
H	   -2.7335	   -3.5149	   -0.5659
C	   -2.2114	   -1.9608	    0.8789
H	   -2.2372	   -2.6356	    1.7444
C	   -2.0144	   -0.5664	    1.0689
H	   -1.8822	   -0.1786	    2.0901
C	   -1.9253	    1.8213	    0.1809
H	   -2.2781	    2.1014	    1.1918
H	   -2.5213	    2.3817	   -0.5644
C	    0.3792	    1.7476	    1.1280
H	    0.3700	    0.6629	    0.9138
H	   -0.1490	    1.9188	    2.0855
C	    1.8488	    2.2163	    1.2112
H	    2.0980	    2.9871	    0.4480
H	    2.0499	    2.6639	    2.2033
C	   -0.5791	    3.8821	    0.3162
H	   -0.9762	    4.0557	    1.3328
H	   -1.2586	    4.3293	   -0.4314
H	    0.4225	    4.3357	    0.2173
C	    0.0402	    2.1581	   -1.3180
H	    1.0446	    2.6038	   -1.4252
H	   -0.6599	    2.6137	   -2.0409
H	    0.1295	    1.0697	   -1.4768
C	    4.5496	   -0.2855	   -0.2087
C	    4.5073	   -1.6590	    0.0776
H	    3.5440	   -2.1863	    0.1196
C	    5.7166	   -2.3287	    0.2934
H	    5.7023	   -3.4059	    0.5179
C	    6.9539	   -1.6511	    0.2255
C	    6.9510	   -0.2673	   -0.0678
H	    7.9072	    0.2747	   -0.1280
C	    5.7588	    0.4269	   -0.2876
H	    5.7570	    1.4995	   -0.5273
C	    8.2506	   -2.3838	    0.4303
H	    8.7343	   -2.5930	   -0.5479
H	    8.1007	   -3.3537	    0.9407
H	    8.9686	   -1.7807	    1.0201
