36
XATCIF Cr total_charge=+1 EN=17 VN=0 CrL₆ heatmap_gray_cell
Cr	   -1.4491	    0.1929	   -0.0991
O	    0.8451	    1.5651	   -1.4449
O	   -3.2794	    2.2217	   -1.3534
O	   -1.0611	    2.0721	    2.2038
N	    2.0390	   -1.2216	    0.3654
N	    3.3985	    0.3439	   -0.3141
C	   -0.0675	    1.0316	   -0.9312
C	   -2.5705	    1.4396	   -0.8687
C	   -1.2316	    1.3493	    1.3020
C	   -0.4230	   -1.6652	    0.5017
C	   -0.6886	   -1.6879	   -0.9058
H	    0.1350	   -1.8228	   -1.6214
C	   -2.0040	   -1.5070	   -1.4074
H	   -2.1823	   -1.4970	   -2.4907
C	   -3.0721	   -1.2550	   -0.4989
H	   -4.0811	   -1.0548	   -0.8862
C	   -2.8372	   -1.2285	    0.8989
H	   -3.6538	   -1.0022	    1.5970
C	   -1.5097	   -1.4062	    1.3881
H	   -1.3225	   -1.3333	    2.4700
C	    0.9598	   -1.9319	    1.0637
H	    0.9966	   -1.6602	    2.1346
H	    1.2022	   -3.0128	    1.0006
C	    2.4832	    0.0336	    0.6362
C	    3.5314	   -0.7138	   -1.1962
H	    4.2192	   -0.6805	   -2.0463
C	    2.6828	   -1.7021	   -0.7665
H	    2.4998	   -2.7075	   -1.1568
C	    2.0901	    0.9234	    1.7529
H	    2.9748	    1.1928	    2.3663
H	    1.3427	    0.4500	    2.4100
H	    1.6429	    1.8614	    1.3679
C	    4.0394	    1.6498	   -0.4513
H	    4.4379	    1.9851	    0.5238
H	    3.2980	    2.3807	   -0.8295
H	    4.8737	    1.5645	   -1.1688
