67
XOZKEC Cr total_charge=+1 EN=15 VN=2 CrL₄X₂ heatmap_gray_cell
Cr	    0.3763	   -0.0841	    0.1246
O	   -4.6841	   -0.7257	    0.1217
O	    2.1093	   -0.8026	    0.5096
O	    0.4727	   -1.0256	   -1.4917
O	    1.2541	    1.3842	   -0.7043
O	    0.5137	    0.8393	    1.7631
N	   -1.4148	    0.4040	   -0.2185
N	   -3.6252	   -0.1060	   -0.1081
N	   -0.5738	   -1.6560	    1.0625
C	   -2.3596	   -0.4774	    0.1911
C	   -2.0778	    1.4624	   -1.0438
C	   -3.6077	    1.3110	   -0.6713
C	   -1.5216	    2.8510	   -0.7144
H	   -1.5251	    3.0554	    0.3715
H	   -2.1258	    3.6280	   -1.2226
H	   -0.4831	    2.9321	   -1.0801
C	   -1.7784	    1.1237	   -2.5159
H	   -2.2306	    1.8766	   -3.1895
H	   -2.1567	    0.1213	   -2.7945
H	   -0.6827	    1.1269	   -2.6629
C	   -4.0646	    2.2018	    0.4956
H	   -5.0604	    1.8591	    0.8369
H	   -4.1514	    3.2546	    0.1686
H	   -3.3641	    2.1526	    1.3514
C	   -4.5982	    1.3968	   -1.8268
H	   -4.5981	    2.4214	   -2.2460
H	   -5.6155	    1.1732	   -1.4537
H	   -4.3666	    0.6830	   -2.6376
C	   -1.9325	   -1.6546	    0.9151
C	   -2.7477	   -2.6716	    1.4408
H	   -3.8334	   -2.6177	    1.2863
C	   -2.1269	   -3.7124	    2.1420
H	   -2.7307	   -4.5272	    2.5678
C	   -0.7291	   -3.7049	    2.2992
H	   -0.2139	   -4.5057	    2.8481
C	    0.0135	   -2.6551	    1.7465
H	    1.1077	   -2.5902	    1.8431
C	    4.3587	   -1.5403	    0.3994
H	    4.6774	   -2.5958	    0.2796
H	    4.2907	   -1.2979	    1.4749
H	    5.1544	   -0.9133	   -0.0547
C	    3.0288	   -1.2759	   -0.2580
C	    2.7994	   -1.5751	   -1.6347
C	    1.4856	   -1.4929	   -2.1567
C	    1.1615	   -1.9857	   -3.5425
H	    1.6361	   -1.3363	   -4.3085
H	    0.0679	   -1.9656	   -3.6962
H	    1.5392	   -3.0134	   -3.7147
C	    3.9104	   -2.1222	   -2.4955
H	    3.8340	   -1.7596	   -3.5386
H	    3.8944	   -3.2338	   -2.5419
H	    4.9080	   -1.8290	   -2.1216
C	    2.9611	    2.9607	   -1.1528
H	    4.0377	    2.6929	   -1.1155
H	    2.8932	    4.0431	   -0.9208
H	    2.5873	    2.7808	   -2.1763
C	    2.1702	    2.1289	   -0.1774
C	    2.3957	    2.2170	    1.2262
C	    1.4798	    1.6128	    2.1342
C	    1.5385	    1.9041	    3.6095
H	    1.6045	    2.9904	    3.8175
H	    2.4412	    1.4351	    4.0559
H	    0.6457	    1.4834	    4.1052
C	    3.4795	    3.1209	    1.7600
H	    3.8882	    2.7466	    2.7174
H	    3.1128	    4.1546	    1.9479
H	    4.3277	    3.2046	    1.0562
