67
YAWYUR Cr total_charge=+1 EN=18 VN=1 CrL₆X₁ heatmap_gray_cell
Cr	    0.0995	   -0.9302	    1.1036
P	   -1.4480	    0.0347	   -0.4373
P	    1.5559	    0.0533	   -0.4954
O	   -1.9504	    0.0645	    3.0438
O	    1.7723	    0.7340	    2.9380
C	   -1.1686	   -0.2621	    2.2404
C	    1.1197	    0.1222	    2.1860
C	   -0.6087	    0.5160	   -2.0505
H	   -1.2771	    0.2950	   -2.9055
H	   -0.4945	    1.6177	   -2.0002
C	    0.7542	   -0.1566	   -2.1635
H	    1.3832	    0.3051	   -2.9515
H	    0.6632	   -1.2426	   -2.3708
C	    0.2196	   -2.6258	    2.4318
H	    0.1557	   -2.5313	    3.5226
C	   -0.8855	   -2.8260	    1.5331
H	   -1.9419	   -2.9208	    1.8113
C	   -0.3619	   -2.9284	    0.2084
H	   -0.9491	   -3.1095	   -0.6982
C	    1.0514	   -2.7831	    0.2831
H	    1.7526	   -2.8501	   -0.5562
C	    1.4178	   -2.5860	    1.6520
H	    2.4390	   -2.4544	    2.0289
C	   -2.4667	    1.5393	   -0.1025
C	   -2.2502	    2.4096	    0.9820
H	   -1.4893	    2.1867	    1.7406
C	   -3.0233	    3.5727	    1.1231
H	   -2.8498	    4.2378	    1.9821
C	   -4.0158	    3.8795	    0.1815
H	   -4.6217	    4.7907	    0.2950
C	   -4.2411	    3.0144	   -0.9018
H	   -5.0237	    3.2438	   -1.6403
C	   -3.4766	    1.8490	   -1.0425
H	   -3.6774	    1.1691	   -1.8847
C	   -2.7577	   -1.1750	   -0.8965
C	   -3.7896	   -1.4139	    0.0367
H	   -3.8317	   -0.8375	    0.9742
C	   -4.7784	   -2.3692	   -0.2373
H	   -5.5842	   -2.5426	    0.4915
C	   -4.7474	   -3.0948	   -1.4401
H	   -5.5259	   -3.8419	   -1.6539
C	   -3.7250	   -2.8589	   -2.3716
H	   -3.7005	   -3.4178	   -3.3189
C	   -2.7308	   -1.9037	   -2.1023
H	   -1.9365	   -1.7363	   -2.8458
C	    3.2363	   -0.6690	   -0.6114
C	    4.1282	   -0.4541	    0.4623
H	    3.8219	    0.1548	    1.3264
C	    5.4184	   -1.0002	    0.4219
H	    6.1094	   -0.8248	    1.2598
C	    5.8305	   -1.7612	   -0.6850
H	    6.8442	   -2.1874	   -0.7140
C	    4.9500	   -1.9710	   -1.7567
H	    5.2715	   -2.5575	   -2.6302
C	    3.6550	   -1.4281	   -1.7235
H	    2.9823	   -1.5983	   -2.5772
C	    1.9079	    1.8565	   -0.4626
C	    1.1181	    2.7350	    0.2981
H	    0.3183	    2.3286	    0.9280
C	    1.3474	    4.1178	    0.2487
H	    0.7204	    4.7957	    0.8466
C	    2.3750	    4.6280	   -0.5579
H	    2.5610	    5.7117	   -0.5942
C	    3.1737	    3.7535	   -1.3152
H	    3.9855	    4.1510	   -1.9423
C	    2.9457	    2.3717	   -1.2709
H	    3.5849	    1.6931	   -1.8566
