54
ZATWOI Cr total_charge=+1 EN=14 VN=1 CrL₄X₁ heatmap_gray_cell
Cr	    0.0005	   -0.0002	    0.2387
Cl	    0.0005	   -0.0001	   -2.1788
O	   -1.2443	    4.0628	    0.1124
O	   -2.8979	   -3.1078	    0.1120
O	    4.1412	   -0.9549	    0.1106
N	    0.0009	   -0.0005	    2.4342
N	   -0.5957	    1.8777	    0.6001
N	   -1.3282	   -1.4551	    0.5998
N	    1.9250	   -0.4230	    0.5992
N	   -1.4659	    2.5776	   -1.5322
H	   -1.1512	    1.7206	   -2.0218
N	   -1.5016	   -2.5570	   -1.5332
H	   -0.9165	   -1.8562	   -2.0227
N	    2.9659	   -0.0191	   -1.5333
H	    2.0663	    0.1375	   -2.0225
C	   -0.7228	    1.2056	    2.8986
H	   -0.4783	    1.4396	    3.9602
H	   -1.8093	    0.9988	    2.8429
C	   -0.3984	    2.3614	    1.9775
H	   -1.0427	    3.2316	    2.2142
H	    0.6523	    2.7021	    2.1098
C	   -1.0721	    2.7685	   -0.2496
C	   -1.9105	    4.7542	   -0.9740
H	   -1.4871	    5.7724	   -1.0465
H	   -2.9924	    4.8191	   -0.7324
C	   -1.6425	    3.8633	   -2.1946
H	   -2.4934	    3.8502	   -2.9030
H	   -0.7275	    4.1729	   -2.7497
C	   -0.6818	   -1.2304	    2.8983
H	   -1.0066	   -1.1359	    3.9599
H	    0.0404	   -2.0681	    2.8423
C	   -1.8453	   -1.5268	    1.9774
H	   -2.2768	   -2.5199	    2.2138
H	   -2.6656	   -0.7871	    2.1104
C	   -1.8627	   -2.3121	   -0.2502
C	   -3.1651	   -4.0294	   -0.9749
H	   -4.2587	   -4.1711	   -1.0466
H	   -2.6807	   -4.9993	   -0.7344
C	   -2.5280	   -3.3514	   -2.1954
H	   -2.0924	   -4.0815	   -2.9049
H	   -3.2535	   -2.7127	   -2.7494
C	    1.4075	    0.0230	    2.8980
H	    1.4883	   -0.3062	    3.9595
H	    1.7719	    1.0672	    2.8427
C	    2.2456	   -0.8360	    1.9764
H	    3.3215	   -0.7137	    2.2128
H	    2.0147	   -1.9162	    2.1086
C	    2.9344	   -0.4560	   -0.2509
C	    5.0729	   -0.7240	   -0.9760
H	    5.7424	   -1.6001	   -1.0490
H	    5.6707	    0.1801	   -0.7344
C	    4.1671	   -0.5097	   -2.1962
H	    4.5813	    0.2337	   -2.9047
H	    3.9768	   -1.4567	   -2.7515
