55
ABIPEI total_charge=+1 nitrosyl_NO
Mo	   -0.1578	   -0.2605	   -0.8922
O	    0.2132	   -3.2718	   -1.7025
O	   -0.6093	    0.5517	   -3.7362
N	   -0.0496	    1.8786	   -0.2430
N	    2.0616	    0.0536	   -0.5769
N	    0.0091	   -0.7216	    1.3377
N	   -2.1908	   -0.5093	   -0.3104
N	   -0.4008	    0.1943	   -2.6222
C	   -1.0902	    2.6441	    0.1529
H	   -2.0882	    2.1867	    0.0685
C	   -0.9211	    3.9409	    0.6486
H	   -1.7980	    4.5300	    0.9517
C	    0.3788	    4.4575	    0.7535
H	    0.5506	    5.4692	    1.1498
C	    1.4593	    3.6641	    0.3414
H	    2.4913	    4.0388	    0.4027
C	    1.2114	    2.3809	   -0.1682
C	    2.3027	    1.5140	   -0.7410
H	    2.3308	    1.7073	   -1.8348
H	    3.2964	    1.8100	   -0.3357
C	    2.9439	   -0.7036	   -1.5562
H	    3.7718	   -0.0345	   -1.8759
H	    2.3550	   -0.9827	   -2.4478
C	    3.5133	   -1.8771	   -0.7730
H	    4.4424	   -2.2670	   -1.2299
H	    2.7884	   -2.7151	   -0.7323
C	    3.7349	   -1.2532	    0.6095
H	    3.9069	   -1.9940	    1.4139
H	    4.6166	   -0.5804	    0.5899
C	    2.4467	   -0.4409	    0.8235
H	    2.6216	    0.4541	    1.4550
C	    1.3670	   -1.3226	    1.5031
H	    1.3612	   -2.3187	    1.0193
C	    1.5890	   -1.4066	    3.0344
H	    2.6518	   -1.2484	    3.3008
H	    1.3211	   -2.4145	    3.4042
C	    0.6542	   -0.3209	    3.6325
H	   -0.0822	   -0.7723	    4.3254
H	    1.2036	    0.4423	    4.2155
C	   -0.0392	    0.3181	    2.4116
H	   -1.0875	    0.6284	    2.5824
H	    0.5147	    1.2100	    2.0691
C	   -1.1196	   -1.6837	    1.5256
H	   -1.2841	   -1.9346	    2.5950
H	   -0.8536	   -2.6222	    0.9931
C	   -2.3738	   -1.1197	    0.9079
C	   -3.6419	   -1.2555	    1.4796
H	   -3.7400	   -1.7396	    2.4624
C	   -4.7725	   -0.7945	    0.7860
H	   -5.7781	   -0.9032	    1.2162
C	   -4.5839	   -0.2000	   -0.4716
H	   -5.4346	    0.1660	   -1.0640
C	   -3.2910	   -0.0677	   -0.9821
H	   -3.1008	    0.3919	   -1.9634
C	    0.0340	   -2.1528	   -1.3918
