22
ACUYUT total_charge=+0 nitrosyl_NO
W	   -0.0560	    0.1285	   -0.0343
C	   -1.5098	   -1.8039	   -0.0870
H	   -1.1198	   -2.7914	   -0.3617
C	   -2.0625	   -0.8292	   -0.9870
H	   -2.1827	   -0.9467	   -2.0700
C	   -2.4416	    0.3166	   -0.2233
H	   -2.8965	    1.2327	   -0.6195
C	   -2.1180	    0.0638	    1.1514
H	   -2.2984	    0.7410	    1.9944
C	   -1.5479	   -1.2529	    1.2292
H	   -1.2035	   -1.7505	    2.1442
C	    0.9180	   -0.4219	   -1.9645
H	    0.3440	   -1.1654	   -2.5485
H	    1.2652	    0.4391	   -2.5640
C	    1.7086	   -0.8880	   -0.8814
C	    2.7797	   -1.6218	   -0.5563
H	    3.4079	   -2.0776	   -1.3422
H	    3.0853	   -1.7896	    0.4896
O	    0.5327	    3.0614	   -0.4147
N	    0.3650	    1.8937	   -0.2691
C	    1.3052	    0.0293	    1.4072
O	    2.0917	   -0.0881	    2.2608
