39
AZEPEC total_charge=+0 nitrosyl_NO
Cr	    3.6997	   -0.4180	    0.1990
N	    5.0355	   -1.1598	    0.9097
N	   -0.0772	    0.2773	   -0.8323
N	   -1.2003	    0.9256	   -0.4738
H	   -1.2580	    1.9470	   -0.2855
N	   -6.1177	   -1.8063	    0.1628
C	    2.2310	    0.2631	   -1.2957
C	    2.3540	   -1.1766	   -1.3643
H	    1.5336	   -1.8781	   -1.1817
C	    3.6905	   -1.4965	   -1.7300
H	    4.0994	   -2.5071	   -1.8479
C	    4.4207	   -0.2706	   -1.8803
H	    5.4821	   -0.1771	   -2.1382
C	    3.5331	    0.8099	   -1.6091
H	    3.7950	    1.8727	   -1.6593
N	   -3.6113	    2.4083	    0.3019
C	    1.0122	    0.9944	   -0.9400
C	    3.8803	    1.1526	    1.1453
C	    2.4826	   -1.0718	    1.4237
C	    1.0510	    2.4794	   -0.6897
H	    0.7474	    2.7082	    0.3549
H	    0.3449	    3.0191	   -1.3566
H	    2.0560	    2.9081	   -0.8394
C	   -2.3876	    0.2695	   -0.3200
C	   -2.4808	   -1.1378	   -0.5311
H	   -1.5625	   -1.6637	   -0.8194
C	   -3.6825	   -1.8084	   -0.3753
H	   -3.7650	   -2.8919	   -0.5343
C	   -4.8398	   -1.0908	   -0.0013
C	   -4.7993	    0.2814	    0.2160
H	   -5.7029	    0.8311	    0.5066
C	   -3.5863	    0.9667	    0.0600
O	    5.9809	   -1.6895	    1.3602
O	   -7.1030	   -1.1445	    0.4912
O	   -6.1107	   -3.0223	   -0.0417
O	   -2.5421	    3.0492	    0.1727
O	   -4.6723	    2.9345	    0.6198
O	    1.6991	   -1.4958	    2.1714
O	    3.9931	    2.1634	    1.7136
