23
BABFOZ total_charge=+0 nitrosyl_NO
Cr	   -0.8223	    0.0001	    0.0437
O	   -3.6658	    0.0000	    0.2384
O	   -0.7187	   -2.2137	   -1.9990
O	   -0.7185	    2.2169	   -1.9957
N	   -2.4946	    0.0001	    0.1297
C	    0.0806	    1.1672	    1.6575
C	   -0.5547	   -0.0021	    2.1863
C	    0.0805	   -1.1704	    1.6552
C	    2.2037	   -1.4355	    0.1236
C	    3.1734	   -0.7138	   -0.5523
C	    3.1734	    0.7149	   -0.5509
C	    2.2038	    1.4353	    0.1264
C	    1.2020	    0.7257	    0.8562
C	    1.2020	   -0.7273	    0.8547
C	   -0.7595	   -1.3452	   -1.2251
C	   -0.7595	    1.3473	   -1.2231
H	   -0.1788	    2.2078	    1.8817
H	   -1.4256	   -0.0027	    2.8536
H	   -0.1790	   -2.2114	    1.8772
H	    2.2055	   -2.5354	    0.1184
H	    3.9599	   -1.2470	   -1.1071
H	    3.9600	    1.2491	   -1.1046
H	    2.2056	    2.5352	    0.1235
