74
HISRAF Cr total_charge=+1 EN=11 VN=3 CrL₁X₃ reason=EN<12 formula EN=6+2n+VN
Cr	    1.3360	   -0.5354	    0.2360
P	   -1.6542	   -0.4973	   -0.9280
N	   -0.0797	   -0.8568	   -0.6393
N	    1.3806	    0.9009	    1.2512
N	    2.9030	   -0.8038	   -0.5911
C	    1.6233	    2.3396	    1.2289
H	    2.6905	    2.4871	    1.5322
C	    0.7479	    3.1136	    2.2225
H	   -0.3256	    2.9607	    1.9973
H	    0.9647	    4.1973	    2.1462
H	    0.9373	    2.8118	    3.2707
C	    1.4598	    2.8468	   -0.2030
H	    2.0663	    2.2434	   -0.9059
H	    1.7781	    3.9045	   -0.2770
H	    0.4018	    2.7756	   -0.5220
C	    1.3770	    0.0280	    2.4008
H	    1.4413	   -1.0896	    1.9139
C	    0.0591	   -0.0414	    3.1874
H	   -0.0589	    0.8546	    3.8272
H	    0.0392	   -0.9341	    3.8445
H	   -0.8050	   -0.0977	    2.4988
C	    2.6133	    0.1020	    3.3012
H	    3.5503	    0.0798	    2.7136
H	    2.6320	   -0.7407	    4.0201
H	    2.5955	    1.0426	    3.8884
C	    2.9840	   -1.7568	   -1.7279
H	    4.0669	   -1.8917	   -1.9395
C	    2.3294	   -1.1912	   -2.9948
H	    1.2426	   -1.0546	   -2.8266
H	    2.4732	   -1.8912	   -3.8418
H	    2.7650	   -0.2134	   -3.2752
C	    2.4130	   -3.1289	   -1.3476
H	    2.9150	   -3.5340	   -0.4474
H	    2.5585	   -3.8459	   -2.1803
H	    1.3258	   -3.0559	   -1.1413
C	    4.1559	   -0.1095	   -0.2220
H	    3.8691	    0.6164	    0.5655
C	    4.7605	    0.6927	   -1.3817
H	    5.1173	    0.0388	   -2.2023
H	    5.6333	    1.2696	   -1.0170
H	    4.0270	    1.4095	   -1.7998
C	    5.1632	   -1.0921	    0.3948
H	    4.7100	   -1.6449	    1.2414
H	    6.0485	   -0.5413	    0.7697
H	    5.5237	   -1.8340	   -0.3459
C	   -2.0725	   -1.1706	   -2.5824
H	   -1.3594	   -0.6975	   -3.2908
H	   -1.7760	   -2.2385	   -2.5154
C	   -3.5270	   -1.0029	   -3.0198
H	   -3.8264	    0.0632	   -3.0611
H	   -4.2210	   -1.5303	   -2.3367
H	   -3.6673	   -1.4305	   -4.0318
C	   -2.0259	    1.2807	   -0.9143
C	   -1.8293	    2.0465	   -2.0837
H	   -1.5160	    1.5671	   -3.0230
C	   -2.0285	    3.4339	   -2.0532
H	   -1.8793	    4.0266	   -2.9677
C	   -2.4192	    4.0633	   -0.8600
H	   -2.5797	    5.1515	   -0.8404
C	   -2.6066	    3.3054	    0.3071
H	   -2.9131	    3.7984	    1.2417
C	   -2.4071	    1.9176	    0.2857
H	   -2.5554	    1.3275	    1.2024
C	   -2.7052	   -1.3105	    0.3113
C	   -4.0624	   -0.9519	    0.4661
H	   -4.4972	   -0.1351	   -0.1294
C	   -4.8567	   -1.6344	    1.3985
H	   -5.9133	   -1.3547	    1.5224
C	   -4.3051	   -2.6687	    2.1729
H	   -4.9330	   -3.2000	    2.9036
C	   -2.9560	   -3.0251	    2.0176
H	   -2.5255	   -3.8355	    2.6245
C	   -2.1525	   -2.3509	    1.0866
H	   -1.0925	   -2.6181	    0.9569
