62
JELSIC Cr total_charge=+1 EN=19 VN=5 CrL₄X₅ reason=EN>18 formula EN=6+2n+VN
Cr	   -0.3554	   -0.6878	   -0.2706
P	    1.7395	    0.1652	    0.0031
P	   -0.9155	    1.5209	   -0.0884
C	    0.6023	   -1.4672	   -1.6174
O	    1.1418	   -2.0242	   -2.4921
C	   -1.3493	   -0.4118	   -1.7847
O	   -1.9887	   -0.3460	   -2.7582
O	    2.9898	   -0.8553	    0.3638
O	    2.2565	    0.9206	   -1.3668
O	    1.9536	    1.2319	    1.2265
O	   -2.5310	    1.6809	   -0.3782
O	   -0.2171	    2.6556	   -1.0569
O	   -0.7171	    2.2828	    1.3435
C	    3.7303	   -1.6029	   -0.6158
C	    3.3443	    1.8572	   -1.3625
C	    3.1601	    1.4855	    1.9679
C	   -3.1852	    2.9514	   -0.2111
C	   -0.1977	    2.5072	   -2.4864
C	   -0.1063	    3.5673	    1.5343
C	   -1.6507	   -0.8845	    1.5700
C	   -2.1938	   -1.6600	    0.4847
C	   -1.2141	   -2.6495	    0.1116
C	   -0.0553	   -2.4721	    0.9594
C	   -0.3215	   -1.3658	    1.8473
C	   -2.4402	    0.0430	    2.4399
C	   -3.5959	   -1.5514	   -0.0280
C	   -1.4266	   -3.7569	   -0.8737
C	    1.1138	   -3.4020	    1.0438
C	    0.5227	   -0.9146	    2.9980
H	    4.7705	   -1.6794	   -0.2454
H	    3.7222	   -1.0973	   -1.6011
H	    3.3068	   -2.6197	   -0.7278
H	    3.5914	    2.0624	   -2.4205
H	    4.2424	    1.4466	   -0.8560
H	    3.0364	    2.8025	   -0.8704
H	    2.8798	    1.5631	    3.0360
H	    3.6040	    2.4454	    1.6363
H	    3.8908	    0.6655	    1.8376
H	   -4.2105	    2.8338	   -0.6067
H	   -2.6623	    3.7483	   -0.7784
H	   -3.2310	    3.2284	    0.8618
H	    0.2786	    3.4209	   -2.8874
H	   -1.2253	    2.4191	   -2.8933
H	    0.4037	    1.6228	   -2.7751
H	   -0.1304	    3.7578	    2.6234
H	   -0.6636	    4.3653	    1.0052
H	    0.9429	    3.5572	    1.1826
H	   -1.8047	    0.7983	    2.9331
H	   -2.9377	   -0.5607	    3.2294
H	   -3.2309	    0.5673	    1.8738
H	   -3.9043	   -0.4934	   -0.1202
H	   -4.2933	   -2.0544	    0.6745
H	   -3.7137	   -2.0300	   -1.0174
H	   -2.0766	   -3.4431	   -1.7124
H	   -1.9207	   -4.6167	   -0.3739
H	   -0.4754	   -4.1232	   -1.3026
H	    1.3285	   -3.8855	    0.0720
H	    0.8904	   -4.2128	    1.7693
H	    2.0258	   -2.8822	    1.3880
H	    1.5811	   -1.2100	    2.8751
H	    0.1520	   -1.3731	    3.9393
H	    0.4793	    0.1844	    3.1107
