60
LUSVEC Cr total_charge=+0 EN=11 VN=5 CrX₅ reason=EN<12 formula EN=6+2n+VN
Cr	    0.4793	   -0.1469	   -0.4424
N	    0.4122	   -0.1240	   -1.9657
N	   -0.2321	    1.4355	    0.1086
N	    2.2079	   -0.5775	   -0.0578
C	   -0.6597	   -1.8386	    0.0124
C	   -0.6531	   -1.9726	    1.4789
H	    0.2120	   -2.3033	    2.0691
C	   -1.8909	   -1.6428	    1.9925
H	   -2.1668	   -1.6210	    3.0561
C	   -2.7885	   -1.3319	    0.8931
C	   -4.1432	   -0.9435	    0.8646
H	   -4.7076	   -0.8141	    1.8017
C	   -4.7639	   -0.7361	   -0.3758
H	   -5.8232	   -0.4386	   -0.4133
C	   -4.0479	   -0.9141	   -1.5801
H	   -4.5580	   -0.7544	   -2.5424
C	   -2.6934	   -1.2800	   -1.5657
H	   -2.1290	   -1.3877	   -2.5043
C	   -2.0556	   -1.4828	   -0.3312
C	   -0.6170	    2.5879	   -0.7295
H	   -0.9549	    3.3921	   -0.0389
C	   -1.7936	    2.2449	   -1.6485
H	   -1.4930	    1.4671	   -2.3773
H	   -2.1232	    3.1453	   -2.2059
H	   -2.6513	    1.8497	   -1.0705
C	    0.5862	    3.1346	   -1.5094
H	    1.4228	    3.3861	   -0.8274
H	    0.3026	    4.0497	   -2.0680
H	    0.9461	    2.3778	   -2.2337
C	   -0.3502	    1.6251	    1.5651
H	   -0.0742	    0.6490	    2.0263
C	    0.5980	    2.7039	    2.1097
H	    1.6495	    2.4892	    1.8412
H	    0.5251	    2.7580	    3.2147
H	    0.3403	    3.7061	    1.7110
C	   -1.8070	    1.8901	    1.9824
H	   -2.1501	    2.8866	    1.6377
H	   -1.8933	    1.8707	    3.0872
H	   -2.4812	    1.1209	    1.5636
C	    2.6359	   -0.5035	    1.3490
H	    1.7336	   -0.2138	    1.9320
C	    3.0896	   -1.8738	    1.8806
H	    2.3175	   -2.6463	    1.6999
H	    3.2832	   -1.8183	    2.9707
H	    4.0269	   -2.2089	    1.3922
C	    3.7054	    0.5746	    1.5885
H	    4.6721	    0.3025	    1.1185
H	    3.8873	    0.7034	    2.6744
H	    3.3845	    1.5476	    1.1692
C	    3.2699	   -0.9107	   -1.0310
H	    4.1942	   -1.1165	   -0.4467
C	    2.9261	   -2.1883	   -1.8061
H	    2.7252	   -3.0296	   -1.1133
H	    3.7643	   -2.4779	   -2.4721
H	    2.0231	   -2.0241	   -2.4268
C	    3.5758	    0.2642	   -1.9681
H	    2.6909	    0.4901	   -2.5945
H	    4.4255	    0.0135	   -2.6351
H	    3.8381	    1.1752	   -1.3954
H	   -0.1173	   -2.5767	   -0.6066
