48
NEVROV Cr total_charge=+0 EN=10 VN=4 CrX₄ reason=EN<12 formula EN=6+2n+VN
Cr	   -0.9859	    0.7026	   -0.1918
O	   -1.5751	    1.3286	   -2.8701
O	    0.9009	    0.4183	   -0.5288
O	    1.2312	   -0.4225	    1.5478
N	   -1.3218	    0.9720	   -1.7647
N	   -1.7230	   -0.9433	   -0.0136
C	   -0.1978	    2.6905	    1.0324
C	   -1.2860	    2.9682	    0.1660
C	   -2.4269	    2.2395	    0.6598
C	   -2.0398	    1.6033	    1.8902
C	   -0.6670	    1.8586	    2.1083
C	    1.6532	   -0.0643	    0.4393
C	    3.1139	   -0.1559	    0.0881
C	    4.0088	   -0.6602	    1.0525
C	    5.3756	   -0.7567	    0.7624
C	    5.8574	   -0.3508	   -0.4942
C	    4.9684	    0.1518	   -1.4593
C	    3.6000	    0.2497	   -1.1711
C	   -2.3673	   -1.7641	   -1.0615
C	   -1.6828	   -1.5855	    1.3241
C	   -1.3794	   -2.1297	   -2.1774
C	   -3.6560	   -1.1190	   -1.5902
C	   -0.8399	   -2.8704	    1.3113
C	   -3.0900	   -1.8237	    1.8913
H	    0.8362	    3.0276	    0.8892
H	   -1.2605	    3.5912	   -0.7363
H	   -3.4367	    2.2620	    0.2319
H	   -2.6922	    0.9877	    2.5198
H	   -0.0444	    1.4491	    2.9112
H	    3.5985	   -0.9692	    2.0252
H	    6.0723	   -1.1507	    1.5183
H	    6.9317	   -0.4271	   -0.7225
H	    5.3464	    0.4689	   -2.4434
H	    2.8864	    0.6391	   -1.9109
H	   -2.6682	   -2.7179	   -0.5767
H	   -1.1366	   -0.8800	    1.9782
H	   -1.0920	   -1.2467	   -2.7780
H	   -0.4562	   -2.5698	   -1.7539
H	   -1.8411	   -2.8721	   -2.8597
H	   -4.3393	   -0.8610	   -0.7575
H	   -3.4471	   -0.1994	   -2.1680
H	   -4.1825	   -1.8280	   -2.2609
H	   -1.2837	   -3.6639	    0.6763
H	    0.1858	   -2.6498	    0.9635
H	   -0.7699	   -3.2679	    2.3437
H	   -3.0179	   -2.1750	    2.9402
H	   -3.6942	   -0.8954	    1.8772
H	   -3.6433	   -2.5975	    1.3210
