24
TUTBIU Cr total_charge=+0 EN=13 VN=7 CrX₇ reason=VN>6 formula EN=6+2n+VN
Cr	    3.4791	   -0.4229	   -0.0000
O	    4.0658	    0.2554	   -1.3139
O	    3.7148	   -1.9976	   -0.0032
O	    4.0648	    0.2500	    1.3172
O	    1.5652	   -0.2146	    0.0001
O	    1.3935	    2.0698	   -0.0001
N	   -2.6976	    1.8026	    0.0000
H	   -3.2509	    2.6663	    0.0001
C	    0.9483	    0.9258	   -0.0000
C	   -0.5652	    0.7364	   -0.0000
C	   -1.3551	    1.8935	    0.0000
H	   -0.8757	    2.8850	    0.0000
C	   -3.3856	    0.6026	    0.0000
C	   -4.7971	    0.5674	    0.0000
H	   -5.3725	    1.5058	    0.0000
C	   -5.4424	   -0.6661	    0.0000
H	   -6.5417	   -0.7012	    0.0000
C	   -4.7004	   -1.8751	   -0.0000
H	   -5.2324	   -2.8375	   -0.0000
C	   -3.3124	   -1.8490	   -0.0000
H	   -2.7276	   -2.7806	   -0.0000
C	   -2.6121	   -0.6083	   -0.0000
C	   -1.1930	   -0.5104	   -0.0000
H	   -0.5581	   -1.4102	   -0.0001
