71
VUNVEF Cr total_charge=+1 EN=19 VN=1 CrL₆X₁ reason=EN>18 formula EN=6+2n+VN
Cr	   -0.0638	    0.0011	    1.3272
C	    0.8783	    0.6934	    3.1542
C	    0.8374	   -0.7421	    3.1479
C	   -0.5391	   -1.1403	    3.1442
C	   -1.3408	    0.0401	    3.1510
C	   -0.4713	    1.1702	    3.1554
C	   -0.0151	   -1.6490	    0.4002
C	    0.1497	   -3.9157	   -0.9119
C	   -0.8789	   -3.8919	   -2.0594
C	   -0.1283	   -5.0931	    0.0427
C	    1.5852	   -3.9935	   -1.4685
C	    1.6095	    0.0181	    0.4454
C	    3.9154	    0.0375	   -0.8097
C	    4.7106	   -1.2218	   -0.4141
C	    3.5982	    0.0290	   -2.3187
C	    4.6873	    1.3141	   -0.4238
C	   -0.0490	    1.6524	    0.3993
C	    0.0666	    3.9188	   -0.9185
C	    1.4873	    4.0067	   -1.5104
C	   -0.1969	    5.0953	    0.0413
C	   -0.9899	    3.8850	   -2.0401
C	   -1.7026	   -0.0157	    0.3706
C	   -3.9744	   -0.0451	   -0.9443
C	   -4.0286	    1.2152	   -1.8297
C	   -4.0038	   -1.3210	   -1.8083
C	   -5.1352	   -0.0478	    0.0697
N	    0.0232	   -2.6911	   -0.1691
N	    2.6679	    0.0286	   -0.0945
N	   -0.0317	    2.6943	   -0.1712
N	   -2.7369	   -0.0268	   -0.2123
H	    1.7808	    1.3154	    3.1707
H	    1.7032	   -1.4143	    3.1613
H	   -0.9142	   -2.1705	    3.1397
H	   -2.4368	    0.0730	    3.1421
H	   -0.7852	    2.2207	    3.1571
H	   -0.6963	   -3.0325	   -2.7341
H	   -1.9092	   -3.8149	   -1.6613
H	   -0.8015	   -4.8245	   -2.6512
H	    0.5960	   -5.1004	    0.8804
H	   -0.0365	   -6.0500	   -0.5067
H	   -1.1519	   -5.0272	    0.4605
H	    1.7120	   -4.9257	   -2.0523
H	    2.3257	   -3.9939	   -0.6447
H	    1.7951	   -3.1328	   -2.1341
H	    5.6759	   -1.2414	   -0.9561
H	    4.1457	   -2.1390	   -0.6715
H	    4.9206	   -1.2291	    0.6732
H	    4.5407	    0.0355	   -2.8997
H	    3.0064	    0.9218	   -2.6009
H	    3.0230	   -0.8767	   -2.5943
H	    5.6522	    1.3473	   -0.9658
H	    4.8969	    1.3337	    0.6635
H	    4.1057	    2.2188	   -0.6883
H	    1.5922	    4.9388	   -2.0988
H	    1.6878	    3.1464	   -2.1792
H	    2.2477	    4.0148	   -0.7049
H	   -0.1263	    6.0521	   -0.5115
H	    0.5480	    5.1096	    0.8607
H	   -1.2092	    5.0221	    0.4844
H	   -0.9348	    4.8174	   -2.6346
H	   -2.0094	    3.8004	   -1.6164
H	   -0.8173	    3.0261	   -2.7180
H	   -4.9706	    1.2237	   -2.4115
H	   -3.1781	    1.2360	   -2.5388
H	   -3.9938	    2.1316	   -1.2086
H	   -4.9455	   -1.3581	   -2.3893
H	   -3.9506	   -2.2258	   -1.1716
H	   -3.1531	   -1.3368	   -2.5174
H	   -6.1021	   -0.0619	   -0.4695
H	   -5.1040	    0.8580	    0.7063
H	   -5.0863	   -0.9416	    0.7218
