73
XUGTUO Cr total_charge=+0 EN=19 VN=3 CrL₅X₃ reason=EN>18 formula EN=6+2n+VN
Cr	   -2.1852	   -1.1775	   -0.7282
H	   -1.0201	   -1.6531	    0.1765
F	    3.7507	    1.2574	   -0.9733
F	    5.4779	   -0.0359	   -2.5156
F	    5.0554	   -2.6521	   -3.2303
F	    2.8072	   -3.9555	   -2.3207
F	    1.0477	   -2.6821	   -0.7516
F	    0.7133	    2.2432	   -1.9424
F	    1.1267	    4.8772	   -1.6350
F	    2.1627	    5.8569	    0.7162
F	    2.7615	    4.1236	    2.7587
F	    2.3421	    1.4952	    2.4846
F	   -0.8251	    1.0312	    2.1657
F	   -1.5622	   -0.2475	    4.3615
F	   -0.2209	   -2.5230	    5.1842
F	    1.8752	   -3.4536	    3.6693
F	    2.6094	   -2.2215	    1.4474
B	    1.0939	    0.1276	    0.0934
C	   -1.4884	    0.8738	   -0.5776
H	   -1.6124	    1.5378	    0.2793
C	   -0.3254	    0.0689	   -0.7846
C	   -0.5843	   -0.5883	   -2.0447
H	    0.1265	   -1.2510	   -2.5515
C	   -1.8542	   -0.1745	   -2.5965
H	   -2.2690	   -0.4943	   -3.5574
C	   -2.4395	    0.7265	   -1.6586
C	   -3.8165	    1.3833	   -1.7473
C	   -4.6348	    0.9275	   -0.4436
C	   -4.0894	   -0.4461	   -0.0369
C	   -3.2372	   -0.7071	    1.1056
H	   -2.8904	    0.0284	    1.8362
C	   -2.9001	   -2.0885	    1.1229
H	   -2.2816	   -2.5923	    1.8738
C	   -3.5510	   -2.7004	    0.0043
H	   -3.5198	   -3.7679	   -0.2432
C	   -4.2834	   -1.6952	   -0.7163
H	   -4.8930	   -1.8760	   -1.6076
C	   -6.1506	    0.8089	   -0.7013
H	   -6.4051	    0.0448	   -1.4583
H	   -6.5664	    1.7789	   -1.0405
H	   -6.6701	    0.5336	    0.2383
C	   -4.4627	    1.9099	    0.7335
H	   -4.9518	    1.5012	    1.6396
H	   -4.9461	    2.8781	    0.5061
H	   -3.4079	    2.1159	    0.9903
C	   -4.5072	    0.9296	   -3.0466
H	   -3.8826	    1.2017	   -3.9197
H	   -5.4828	    1.4334	   -3.1764
H	   -4.6752	   -0.1639	   -3.0835
C	   -3.6231	    2.9110	   -1.8328
H	   -3.0300	    3.3138	   -0.9913
H	   -4.6008	    3.4340	   -1.8523
H	   -3.0843	    3.1684	   -2.7664
C	   -1.7431	   -2.6969	   -1.6846
O	   -1.4949	   -3.6525	   -2.2980
C	    2.2620	   -0.6245	   -0.8047
C	    3.4383	   -0.0163	   -1.2786
C	    4.3813	   -0.6764	   -2.0918
C	    4.1713	   -2.0122	   -2.4580
C	    3.0212	   -2.6726	   -1.9976
C	    2.1158	   -1.9686	   -1.1926
C	    1.4195	    1.7356	    0.2878
C	    1.1688	    2.6647	   -0.7361
C	    1.3964	    4.0441	   -0.6189
C	    1.9328	    4.5464	    0.5767
C	    2.2329	    3.6577	    1.6195
C	    1.9852	    2.2839	    1.4507
C	    0.8416	   -0.5961	    1.5710
C	   -0.1575	   -0.1245	    2.4399
C	   -0.5497	   -0.7476	    3.6318
C	    0.1261	   -1.9028	    4.0515
C	    1.1870	   -2.3783	    3.2684
C	    1.5353	   -1.7133	    2.0755
