77
GIYBUN Mo total_charge=+0 EN=15 VN=7 MoL₁X₇ reason=VN>6 formula EN=6+2n+VN
Mo	   -0.1776	   -1.2447	    0.6047
N	   -0.7079	   -1.9989	    1.9821
N	   -0.0887	   -2.9337	   -0.5712
N	    0.4145	   -3.3773	   -1.5719
N	    0.8892	   -3.8639	   -2.5208
N	   -1.9509	   -0.5185	   -0.0630
C	   -1.8300	    0.7410	   -0.6950
C	   -0.8214	    0.9382	   -1.6933
C	   -0.5835	    2.2307	   -2.1872
H	    0.1973	    2.3840	   -2.9445
C	   -1.3455	    3.3283	   -1.7551
H	   -1.1406	    4.3296	   -2.1650
C	   -2.3744	    3.1548	   -0.8149
C	   -2.5870	    1.8630	   -0.2936
H	   -3.3332	    1.7367	    0.5020
N	   -0.1140	   -0.2135	   -2.1641
C	    1.1415	    0.0398	   -2.8637
H	    0.9931	    0.5169	   -3.8642
H	    1.6550	   -0.9270	   -3.0293
H	    1.7976	    0.6888	   -2.2575
C	   -0.9980	   -1.0648	   -2.9804
H	   -1.8471	   -1.4203	   -2.3704
H	   -0.4371	   -1.9409	   -3.3528
H	   -1.3926	   -0.5008	   -3.8586
C	   -3.1890	    4.3185	   -0.3072
H	   -3.0023	    5.2355	   -0.8990
H	   -2.9426	    4.5484	    0.7519
H	   -4.2766	    4.1030	   -0.3439
C	   -3.3161	   -1.1047	    0.1983
C	   -4.3450	   -0.6051	   -0.8382
H	   -4.5809	    0.4697	   -0.7440
H	   -5.2882	   -1.1708	   -0.7065
H	   -3.9842	   -0.7804	   -1.8712
C	   -3.7991	   -0.7945	    1.6285
H	   -3.0615	   -1.1622	    2.3672
H	   -4.7647	   -1.3047	    1.8196
H	   -3.9554	    0.2896	    1.7929
C	   -3.2316	   -2.6374	    0.0390
H	   -2.8807	   -2.9136	   -0.9740
H	   -4.2368	   -3.0782	    0.1923
H	   -2.5380	   -3.0848	    0.7729
N	    0.6543	    0.5308	    1.2366
C	    1.8463	    0.7646	    0.5226
C	    2.6833	   -0.3695	    0.2894
C	    3.8784	   -0.2443	   -0.4256
H	    4.5170	   -1.1210	   -0.5976
C	    4.2729	    1.0041	   -0.9358
H	    5.2108	    1.0873	   -1.5056
C	    3.4646	    2.1382	   -0.7440
C	    2.2606	    2.0001	   -0.0240
H	    1.5977	    2.8666	    0.0592
N	    2.1968	   -1.6393	    0.8260
C	    2.5058	   -1.7653	    2.2758
H	    3.6074	   -1.7934	    2.4286
H	    2.0470	   -2.6949	    2.6592
H	    2.0784	   -0.9112	    2.8208
C	    2.7558	   -2.8178	    0.1393
H	    2.6599	   -2.7198	   -0.9555
H	    2.2046	   -3.7154	    0.4723
H	    3.8313	   -2.9500	    0.3902
C	    3.8394	    3.4803	   -1.3216
H	    3.0213	    3.8865	   -1.9522
H	    4.7527	    3.4189	   -1.9439
H	    4.0241	    4.2259	   -0.5200
C	    0.3161	    1.4431	    2.3869
C	   -0.9185	    0.8960	    3.1124
H	   -1.7913	    0.8732	    2.4354
H	   -1.1599	    1.5522	    3.9718
H	   -0.7507	   -0.1311	    3.4838
C	   -0.0185	    2.8808	    1.9109
H	    0.8875	    3.4886	    1.7311
H	   -0.5947	    3.3980	    2.7047
H	   -0.6320	    2.8640	    0.9929
C	    1.4875	    1.5263	    3.3881
H	    1.6201	    0.5758	    3.9415
H	    1.2836	    2.3152	    4.1394
H	    2.4399	    1.7806	    2.8810
