63
HOGMEV Mo total_charge=-1 EN=13 VN=7 MoX₇ reason=VN>6 formula EN=6+2n+VN
Mo	    0.9201	    0.1016	   -0.8832
S	    1.4932	   -1.5575	    0.9582
S	    2.6936	   -1.2135	   -1.9505
S	    0.0010	    1.9529	    0.4082
S	    2.9597	    1.4054	   -0.5357
Si	   -2.4435	   -0.7993	   -0.0840
O	    0.5363	    0.4131	   -2.5273
O	   -0.8283	   -0.5354	   -0.3709
C	    3.0956	   -2.1463	    0.6124
C	    3.6552	   -1.9518	   -0.6872
C	    4.9601	   -2.4185	   -0.9669
C	    5.6987	   -3.0976	    0.0080
C	    5.1396	   -3.3139	    1.2843
C	    3.8550	   -2.8471	    1.5807
C	    1.2315	    3.1720	    0.6877
C	    2.5646	    2.9121	    0.2848
C	    3.5661	    3.8724	    0.5439
C	    3.2478	    5.0771	    1.1867
C	    1.9212	    5.3372	    1.5779
C	    0.9182	    4.3891	    1.3292
C	   -2.7837	   -2.5532	   -0.8041
C	   -1.9174	   -3.5529	   -0.0160
C	   -2.3494	   -2.5307	   -2.2814
C	   -4.2704	   -2.9282	   -0.7012
C	   -2.7644	   -0.7317	    1.7809
C	   -1.6908	   -0.4223	    2.6474
C	   -1.8757	   -0.3739	    4.0380
C	   -3.1381	   -0.6336	    4.5941
C	   -4.2172	   -0.9438	    3.7509
C	   -4.0282	   -0.9928	    2.3605
C	   -3.4436	    0.5095	   -1.0179
C	   -4.7802	    0.8380	   -0.7004
C	   -5.4934	    1.7857	   -1.4519
C	   -3.5445	    2.1211	   -2.8610
C	   -2.8339	    1.1713	   -2.1100
C	   -4.8756	    2.4285	   -2.5368
H	    5.3822	   -2.2361	   -1.9672
H	    6.7146	   -3.4549	   -0.2218
H	    5.7184	   -3.8431	    2.0579
H	    3.4170	   -3.0047	    2.5782
H	    4.5998	    3.6584	    0.2303
H	    4.0388	    5.8183	    1.3813
H	    1.6658	    6.2833	    2.0805
H	   -0.1228	    4.5793	    1.6332
H	   -0.8427	   -3.2778	   -0.0507
H	   -2.0261	   -4.5779	   -0.4389
H	   -2.2137	   -3.5951	    1.0529
H	   -1.2834	   -2.2457	   -2.3878
H	   -2.9504	   -1.8115	   -2.8762
H	   -2.4821	   -3.5388	   -2.7360
H	   -4.9219	   -2.1877	   -1.2120
H	   -4.6044	   -3.0126	    0.3538
H	   -4.4527	   -3.9178	   -1.1799
H	   -0.6970	   -0.2095	    2.2245
H	   -1.0222	   -0.1299	    4.6897
H	   -3.2825	   -0.5951	    5.6857
H	   -5.2116	   -1.1504	    4.1781
H	   -4.8890	   -1.2456	    1.7208
H	   -5.2743	    0.3606	    0.1609
H	   -6.5341	    2.0296	   -1.1845
H	   -5.4310	    3.1761	   -3.1255
H	   -3.0484	    2.6299	   -3.7024
H	   -1.7860	    0.9496	   -2.3686
