25
ABGTCU charge=+1
Cu	   -0.3414	    0.1151	   -0.0519
C	   -3.0082	    0.8581	   -0.1524
C	   -0.6101	   -2.5231	    0.5517
C	    0.7822	   -2.4870	   -0.0686
C	    2.4577	   -0.7277	   -0.0929
C	    2.1072	    1.7508	    0.1134
H	    3.8085	    2.8996	    0.4701
H	    2.3373	    3.7895	    0.2731
H	    0.3001	    2.5662	    0.2496
H	   -1.6773	   -1.6244	   -0.9446
H	   -0.5212	   -2.4261	    1.6550
H	   -1.1067	   -3.5001	    0.3509
H	    0.7561	   -2.8317	   -1.1281
H	    1.4944	   -3.1387	    0.4888
H	    3.2503	   -2.6147	   -0.3367
H	    4.4295	   -1.3922	    0.0029
H	    3.8467	    0.7566	   -0.3190
N	   -1.8591	    1.2272	   -0.3231
N	   -1.4558	   -1.4406	    0.0540
N	    1.1938	   -1.0681	   -0.0316
N	    3.4692	   -1.6230	   -0.2513
N	    2.8808	    0.5982	   -0.0271
N	    2.8300	    2.9009	    0.1815
N	    0.8088	    1.6834	    0.1259
S	   -4.5289	    0.4377	    0.0337
