43
ALEPOX charge=0
Cu	   -0.9845	    0.2684	   -0.4672
O	    0.4107	   -0.8265	   -1.2277
O	    0.0571	    1.8384	   -0.5766
O	    0.1152	   -0.5683	    1.5158
O	    3.6626	   -3.3752	    1.9612
O	    2.8783	   -1.7546	   -2.2113
O	    4.2895	   -0.1773	    0.2661
O	    3.7824	    4.3592	   -0.0499
N	   -2.6342	    1.3308	    0.0339
N	   -2.3374	   -1.2068	   -0.4327
N	    2.0528	   -1.7516	    1.7695
H	    1.8997	   -1.8298	    2.7804
N	    3.0329	   -2.6995	   -0.1427
H	    3.7630	   -3.3158	   -0.5142
N	    3.9887	    2.0961	    0.1466
H	    4.9692	    2.2322	    0.4070
N	    1.8985	    3.0987	   -0.4270
C	   -2.6220	    2.6541	    0.2498
H	   -1.6516	    3.1464	    0.0578
C	   -3.7728	    3.3279	    0.6846
H	   -3.7411	    4.4137	    0.8523
C	   -4.9467	    2.5892	    0.8960
H	   -5.8655	    3.0876	    1.2388
C	   -4.9437	    1.2053	    0.6688
H	   -5.8533	    0.6112	    0.8322
C	   -3.7562	    0.5947	    0.2320
C	   -3.5908	   -0.8516	   -0.0527
C	   -4.6051	   -1.8196	    0.0429
H	   -5.6214	   -1.5361	    0.3486
C	   -4.2993	   -3.1536	   -0.2607
H	   -5.0796	   -3.9259	   -0.1902
C	   -2.9960	   -3.4927	   -0.6555
H	   -2.7240	   -4.5281	   -0.9046
C	   -2.0326	   -2.4775	   -0.7287
H	   -0.9817	   -2.6325	   -1.0323
C	    1.1637	   -1.0090	    1.0353
C	    2.9972	   -2.6494	    1.2470
C	    2.5738	   -1.7382	   -1.0417
C	    1.5273	   -0.7051	   -0.4538
C	    2.1476	    0.6698	   -0.3636
C	    3.5398	    0.7908	    0.0422
C	    3.2276	    3.2618	   -0.1096
C	    1.3652	    1.8785	   -0.4955
