79
AMIQIX charge=0
Zn	   -0.5825	   -0.0001	   -1.3970
N	    0.6092	   -0.0001	    0.1458
N	   -1.2353	    0.0001	    1.5711
C	    0.0670	    0.0001	    1.4080
C	   -2.1012	   -0.0003	    0.4889
C	   -2.5893	   -1.2444	   -0.0476
C	   -3.5914	   -1.2129	   -1.0363
H	   -3.9809	   -2.1605	   -1.4359
C	   -4.0986	   -0.0010	   -1.5238
H	   -4.8773	   -0.0013	   -2.3006
C	   -3.5920	    1.2113	   -1.0366
H	   -3.9819	    2.1586	   -1.4365
C	   -2.5899	    1.2435	   -0.0479
C	   -2.0724	   -2.5487	    0.5439
H	   -0.9954	   -2.3877	    0.7649
C	   -2.7690	   -2.8309	    1.8884
H	   -2.6449	   -1.9726	    2.5768
H	   -2.3412	   -3.7332	    2.3724
H	   -3.8545	   -3.0043	    1.7362
C	   -2.1779	   -3.7459	   -0.4064
H	   -3.2322	   -4.0469	   -0.5785
H	   -1.6578	   -4.6247	    0.0255
H	   -1.7208	   -3.5288	   -1.3927
C	   -2.0736	    2.5482	    0.5433
H	   -0.9965	    2.3878	    0.7642
C	   -2.7702	    2.8302	    1.8878
H	   -3.8559	    3.0030	    1.7356
H	   -2.3430	    3.7329	    2.3715
H	   -2.6456	    1.9722	    2.5763
C	   -2.1799	    3.7452	   -0.4072
H	   -1.7228	    3.5282	   -1.3936
H	   -1.6602	    4.6243	    0.0244
H	   -3.2344	    4.0455	   -0.5792
C	    1.9876	    0.0003	   -0.2205
C	    2.6546	    1.2356	   -0.4758
C	    3.9952	    1.2103	   -0.9016
H	    4.5184	    2.1599	   -1.0893
C	    4.6718	    0.0010	   -1.0996
H	    5.7229	    0.0013	   -1.4258
C	    3.9958	   -1.2086	   -0.9019
H	    4.5194	   -2.1580	   -1.0899
C	    2.6551	   -1.2347	   -0.4761
C	    1.9060	    2.5604	   -0.3819
H	    1.0411	    2.3968	    0.2913
C	    1.3444	    2.9384	   -1.7654
H	    2.1659	    3.0846	   -2.4967
H	    0.7545	    3.8765	   -1.7146
H	    0.6843	    2.1436	   -2.1722
C	    2.7388	    3.7105	    0.1988
H	    3.1820	    3.4421	    1.1781
H	    2.1039	    4.6082	    0.3443
H	    3.5666	    4.0071	   -0.4780
C	    1.9073	   -2.5599	   -0.3824
H	    1.0421	   -2.3967	    0.2907
C	    2.7405	   -3.7095	    0.1985
H	    3.5687	   -4.0055	   -0.4780
H	    2.1061	   -4.6075	    0.3438
H	    3.1833	   -3.4408	    1.1780
C	    1.3461	   -2.9382	   -1.7660
H	    0.6857	   -2.1438	   -2.1729
H	    0.7568	   -3.8766	   -1.7153
H	    2.1679	   -3.0839	   -2.4971
C	   -0.9446	   -0.0003	   -3.3126
H	   -0.0005	   -0.0015	   -3.8938
H	   -1.5312	    0.8958	   -3.5982
H	   -1.5330	   -0.8954	   -3.5976
C	    0.9086	    0.0002	    2.7107
C	    1.7963	    1.2599	    2.7924
H	    1.1913	    2.1838	    2.6953
H	    2.5815	    1.2687	    2.0151
H	    2.3003	    1.2901	    3.7801
C	    1.7967	   -1.2592	    2.7921
H	    2.3007	   -1.2897	    3.7797
H	    2.5820	   -1.2676	    2.0148
H	    1.1920	   -2.1834	    2.6947
C	   -0.0348	   -0.0001	    3.9284
H	    0.5706	   -0.0001	    4.8581
H	   -0.6900	   -0.8914	    3.9331
H	   -0.6904	    0.8909	    3.9332
