25
AQACNJ charge=0
Ni	   -0.0000	    0.0003	    0.0009
Cl	   -5.5925	   -0.0366	   -0.1021
C	   -4.0681	    0.8700	    0.0117
C	   -2.8335	   -0.0370	    0.0486
O	   -1.7812	    0.6095	   -0.3471
O	   -2.8972	   -1.2130	    0.4398
O	    0.2023	   -0.5062	   -1.7917
O	   -0.4988	   -1.8419	    0.1702
H	   -3.9885	    1.5782	   -0.8335
H	   -4.0653	    1.4549	    0.9545
H	   -0.4988	   -0.0056	   -2.2599
H	   -0.3819	   -1.9152	   -0.8295
H	   -1.5411	   -1.7445	    0.3322
O	    1.7812	   -0.6087	    0.3489
O	   -0.2022	    0.5065	    1.7935
O	    0.4993	    1.8424	   -0.1691
C	    2.8334	    0.0369	   -0.0488
H	    0.4989	    0.0056	    2.2614
H	    0.3834	    1.9171	    0.8303
H	    1.5413	    1.7444	   -0.3325
C	    4.0677	   -0.8705	   -0.0119
O	    2.8970	    1.2124	   -0.4416
Cl	    5.5925	    0.0357	    0.0992
H	    3.9886	   -1.5776	    0.8341
H	    4.0637	   -1.4565	   -0.9540
