68
ASOJUO charge=0
W	   -1.3687	   -0.5498	   -0.0810
Si	    1.0772	    0.2565	   -0.3469
Si	    3.0832	   -0.6585	    2.4214
O	   -0.6053	   -0.9647	   -3.1183
O	   -1.3595	   -3.6936	   -0.0359
C	    0.2491	   -0.6391	    1.1605
C	    1.4642	   -0.3719	    1.5461
C	    3.7149	   -2.3791	    1.9652
H	    3.8553	   -2.4564	    0.8679
H	    2.9915	   -3.1606	    2.2735
H	    4.6870	   -2.5873	    2.4587
C	    2.7653	   -0.5172	    4.2811
H	    2.0220	   -1.2705	    4.6121
H	    2.3765	    0.4876	    4.5431
H	    3.7028	   -0.6840	    4.8512
C	    4.3149	    0.6522	    1.8465
H	    5.2923	    0.5159	    2.3536
H	    3.9542	    1.6784	    2.0587
H	    4.4817	    0.5677	    0.7534
C	    1.3001	    2.1219	   -0.4176
C	    1.4442	    2.9124	    0.7438
H	    1.4891	    2.4181	    1.7271
C	    1.5258	    4.3108	    0.6564
H	    1.6358	    4.9123	    1.5721
C	    1.4752	    4.9425	   -0.5976
H	    1.5429	    6.0390	   -0.6670
C	    1.3424	    4.1696	   -1.7628
H	    1.3037	    4.6596	   -2.7479
C	    1.2498	    2.7722	   -1.6726
H	    1.1286	    2.1780	   -2.5935
C	    2.3483	   -0.6746	   -1.3727
C	    2.2359	   -2.0722	   -1.5492
H	    1.3611	   -2.6018	   -1.1401
C	    3.2267	   -2.7874	   -2.2358
H	    3.1259	   -3.8762	   -2.3627
C	    4.3414	   -2.1162	   -2.7675
H	    5.1164	   -2.6782	   -3.3110
C	    4.4609	   -0.7272	   -2.6079
H	    5.3308	   -0.1961	   -3.0244
C	    3.4720	   -0.0116	   -1.9130
H	    3.5795	    1.0775	   -1.7857
C	   -0.8497	   -0.8306	   -1.9746
C	   -1.3171	   -2.5186	   -0.0635
C	   -2.4064	    1.0930	    1.2876
C	   -2.5751	    1.5430	   -0.0716
C	   -3.3787	    0.5623	   -0.7645
C	   -3.7258	   -0.4811	    0.1638
C	   -3.1182	   -0.1617	    1.4375
C	   -1.7342	    1.8495	    2.3947
H	   -1.0132	    2.5875	    1.9966
H	   -1.1771	    1.1738	    3.0725
H	   -2.4815	    2.4015	    3.0043
C	   -2.1261	    2.8547	   -0.6406
H	   -2.9509	    3.5992	   -0.5976
H	   -1.8194	    2.7595	   -1.6998
H	   -1.2657	    3.2737	   -0.0873
C	   -3.8588	    0.6790	   -2.1814
H	   -4.8040	    1.2620	   -2.2281
H	   -4.0549	   -0.3135	   -2.6297
H	   -3.1176	    1.1939	   -2.8222
C	   -4.6474	   -1.6345	   -0.1039
H	   -5.6977	   -1.3634	    0.1397
H	   -4.3817	   -2.5201	    0.5044
H	   -4.6180	   -1.9408	   -1.1669
C	   -3.3146	   -0.9112	    2.7228
H	   -4.2200	   -0.5500	    3.2585
H	   -2.4508	   -0.7835	    3.4026
H	   -3.4418	   -1.9964	    2.5461
