78
ASOKAV charge=0
W	    0.5507	   -1.0474	   -0.5425
Si	    0.1685	    1.4696	    0.3063
Si	   -3.8273	   -0.8769	    0.5883
O	   -0.6166	    1.6292	    1.8273
O	   -1.2532	   -1.7595	   -3.0203
O	    1.6271	    0.8818	   -2.7919
C	   -1.1100	   -0.4179	    0.2854
C	   -2.1671	   -0.0505	    1.0123
C	   -1.9362	    1.1075	    2.0126
C	   -3.4989	   -2.5781	   -0.1663
H	   -4.4603	   -3.0889	   -0.3804
H	   -2.9176	   -3.2143	    0.5303
H	   -2.9341	   -2.4982	   -1.1153
C	   -4.7482	    0.1977	   -0.6684
H	   -4.1403	    0.3188	   -1.5874
H	   -4.9603	    1.2098	   -0.2711
H	   -5.7129	   -0.2737	   -0.9499
C	   -4.8907	   -1.0962	    2.1430
H	   -5.1563	   -0.1293	    2.6154
H	   -4.3790	   -1.7233	    2.9010
H	   -5.8383	   -1.6045	    1.8668
C	   -2.0042	    0.5944	    3.4582
H	   -1.2722	   -0.2232	    3.6068
H	   -3.0121	    0.2140	    3.7089
H	   -1.7527	    1.4216	    4.1520
C	   -2.9506	    2.2399	    1.7834
H	   -2.7142	    3.0826	    2.4628
H	   -3.9851	    1.9011	    1.9916
H	   -2.8988	    2.6069	    0.7408
C	    1.8491	    2.2199	    0.7688
C	    2.2026	    2.3986	    2.1262
H	    1.4733	    2.1280	    2.9038
C	    3.4541	    2.9257	    2.4837
H	    3.7105	    3.0554	    3.5469
C	    4.3729	    3.2967	    1.4888
H	    5.3544	    3.7103	    1.7677
C	    4.0261	    3.1516	    0.1355
H	    4.7336	    3.4568	   -0.6511
C	    2.7776	    2.6189	   -0.2207
H	    2.5248	    2.5154	   -1.2858
C	   -0.7029	    2.5920	   -0.9412
C	   -0.5622	    3.9914	   -0.8038
H	    0.1011	    4.3984	   -0.0233
C	   -1.2574	    4.8726	   -1.6468
H	   -1.1344	    5.9602	   -1.5266
C	   -2.1073	    4.3668	   -2.6436
H	   -2.6533	    5.0565	   -3.3058
C	   -2.2532	    2.9782	   -2.7975
H	   -2.9135	    2.5755	   -3.5812
C	   -1.5544	    2.1018	   -1.9542
H	   -1.6676	    1.0146	   -2.0823
C	   -0.5776	   -1.4663	   -2.1060
C	    1.2005	    0.2065	   -1.9262
C	    0.8109	   -2.7724	    1.1243
C	    1.7877	   -1.7570	    1.4185
C	    2.7012	   -1.6701	    0.3033
C	    2.2935	   -2.6498	   -0.6788
C	    1.1134	   -3.3183	   -0.1775
C	   -0.2600	   -3.2286	    2.0684
H	    0.1863	   -3.7319	    2.9524
H	   -0.9466	   -3.9485	    1.5852
H	   -0.8694	   -2.3786	    2.4368
C	    1.8975	   -1.0299	    2.7238
H	    0.9134	   -0.6682	    3.0787
H	    2.5660	   -0.1540	    2.6468
H	    2.3096	   -1.7060	    3.5039
C	    3.9358	   -0.8195	    0.2422
H	    3.8122	    0.1255	    0.8036
H	    4.1926	   -0.5487	   -0.7995
H	    4.8057	   -1.3614	    0.6723
C	    3.0276	   -2.9830	   -1.9452
H	    3.7951	   -3.7666	   -1.7633
H	    3.5478	   -2.0980	   -2.3590
H	    2.3434	   -3.3625	   -2.7281
C	    0.4107	   -4.4745	   -0.8285
H	    0.8330	   -5.4394	   -0.4747
H	    0.5169	   -4.4480	   -1.9295
H	   -0.6725	   -4.4756	   -0.6005
