42
BADBAJ charge=0
La	    0.6659	    0.3984	    0.1857
O	   -1.1463	   -0.5707	    1.7631
C	   -1.5954	   -1.9449	    1.6537
C	   -2.9145	   -1.8541	    0.8785
C	   -3.4560	   -0.4375	    1.2134
C	   -2.3358	    0.2116	    2.0452
C	   -1.6896	    3.3472	   -0.5983
C	   -2.9012	    3.1074	   -1.3007
C	   -2.8094	    1.8208	   -1.8575
C	   -1.5316	    1.2411	   -1.4395
C	   -0.8625	    2.1517	   -0.6030
C	   -0.4112	   -2.3912	   -1.9325
C	   -0.4368	   -3.7304	   -1.5736
C	    0.7407	   -4.0013	   -0.7275
C	    1.4584	   -2.8219	   -0.6010
C	    0.6862	   -1.7460	   -1.2230
C	    3.4168	    0.1965	   -0.5179
C	    3.3888	    0.0301	    0.9001
C	    3.0166	    1.2765	    1.4831
C	    2.8192	    2.2172	    0.4239
C	    3.0652	    1.5488	   -0.8068
H	   -1.7376	   -2.3503	    2.6810
H	   -0.8012	   -2.5222	    1.1396
H	   -3.6121	   -2.6636	    1.1674
H	   -2.7098	   -1.9541	   -0.2051
H	   -3.6315	    0.1467	    0.2892
H	   -4.4046	   -0.4675	    1.7834
H	   -2.5376	    0.1567	    3.1382
H	   -2.1182	    1.2597	    1.7585
H	   -1.3882	    4.3179	   -0.1748
H	   -3.7272	    3.8175	   -1.4423
H	   -3.5926	    1.2988	   -2.4280
H	   -1.2427	    0.1981	   -1.6794
H	   -1.1505	   -1.8818	   -2.5671
H	   -1.2140	   -4.4679	   -1.8252
H	    0.9725	   -4.9712	   -0.2625
H	    2.3990	   -2.6942	   -0.0465
H	    3.6885	   -0.5716	   -1.2531
H	    3.6443	   -0.8879	    1.4473
H	    2.9477	    1.4928	    2.5589
H	    2.5387	    3.2725	    0.5392
H	    3.0042	    1.9995	   -1.8065
