39
BAPHEF charge=0
Cu	    0.0005	   -0.3541	   -0.4382
O	   -1.9017	   -0.5679	   -0.4961
O	   -2.1080	    1.3697	    0.6604
O	   -8.2108	   -0.4303	    0.0591
O	   -0.0836	    1.4416	   -1.1357
O	    0.0469	   -2.0161	    0.3530
O	    0.2783	    0.3539	    1.8244
C	   -2.6041	    0.3598	    0.1081
C	   -4.0773	    0.1374	    0.0865
C	   -4.9166	    1.1108	    0.6665
C	   -6.3021	    0.9403	    0.6696
C	   -6.8736	   -0.2118	    0.0856
C	   -6.0387	   -1.1889	   -0.5003
C	   -4.6558	   -1.0115	   -0.4981
H	   -4.4521	    2.0008	    1.1150
H	   -6.9545	    1.7026	    1.1267
H	   -6.5039	   -2.0774	   -0.9506
H	   -3.9990	   -1.7645	   -0.9557
H	   -8.6599	    0.3186	    0.4947
H	   -0.7299	    1.7993	   -0.4622
H	   -0.8936	   -2.2978	    0.3091
H	   -0.6254	    0.7430	    1.8057
O	    1.9017	   -0.4680	   -0.6453
H	    0.9110	    1.7540	   -0.8595
H	    0.1294	   -0.6194	    1.8724
C	    2.6584	    0.5718	   -0.4501
O	    2.2809	    1.7708	   -0.5017
C	    4.0873	    0.2436	   -0.1901
C	    5.0604	    1.2594	   -0.2889
C	    4.4841	   -1.0687	    0.1529
C	    6.4036	    0.9741	   -0.0399
H	    4.7356	    2.2759	   -0.5533
C	    5.8237	   -1.3608	    0.4042
H	    3.7127	   -1.8486	    0.2249
C	    6.7945	   -0.3393	    0.3073
H	    7.1638	    1.7700	   -0.1089
H	    6.1501	   -2.3729	    0.6826
O	    8.0841	   -0.6711	    0.5597
H	    8.6373	    0.1273	    0.4643
