61
BAPZIB charge=0
Ni	    0.2593	    0.0007	   -0.0002
S	   -1.5364	   -1.2160	    3.8969
N	    0.2424	   -0.2185	    1.9492
N	    1.7280	    1.4076	    0.1332
N	   -1.1836	   -1.4893	   -0.1807
C	   -0.5188	   -0.6472	    2.7806
C	    1.7769	    2.1746	    1.2392
C	    2.7369	    3.1768	    1.4114
C	    3.6902	    3.3800	    0.3877
C	    3.6014	    2.5569	   -0.7434
C	    2.6338	    1.5779	   -0.8747
C	    4.7619	    4.4341	    0.5107
C	   -1.0541	   -2.6381	    0.5156
C	   -2.0084	   -3.6558	    0.4646
C	   -3.1604	   -3.5034	   -0.3315
C	   -3.2711	   -2.3014	   -1.0568
C	   -2.2731	   -1.3275	   -0.9581
C	   -4.2256	   -4.5626	   -0.3817
H	    1.0276	    1.9448	    2.0097
H	    2.7355	    3.7797	    2.3356
H	    2.5003	    0.9114	   -1.7418
H	    4.7186	    5.1304	   -0.3512
H	    5.7659	    3.9634	    0.4813
H	    4.6716	    5.0169	    1.4475
H	   -0.1515	   -2.7351	    1.1351
H	   -1.8478	   -4.5681	    1.0578
H	   -4.1352	   -2.1155	   -1.7118
H	   -2.3418	   -0.3936	   -1.5367
H	   -4.8781	   -4.4478	   -1.2681
H	   -4.8713	   -4.5010	    0.5203
H	   -3.7856	   -5.5793	   -0.3935
N	    0.2413	    0.2197	   -1.9496
N	    1.7341	   -1.3999	   -0.1337
N	   -1.1902	    1.4842	    0.1805
C	   -0.5218	    0.6457	   -2.7807
C	    1.7861	   -2.1667	   -1.2398
C	    2.6404	   -1.5667	    0.8744
C	   -1.0657	    2.6337	   -0.5155
C	   -2.2790	    1.3174	    0.9579
S	   -1.5420	    1.2109	   -3.8964
C	    2.7498	   -3.1653	   -1.4117
H	    1.0361	   -1.9396	   -2.0103
C	    3.6115	   -2.5423	    0.7433
H	    2.5043	   -0.9006	    1.7413
C	   -2.0244	    3.6472	   -0.4643
H	   -0.1635	    2.7348	   -1.1350
C	   -3.2812	    2.2870	    1.0568
H	   -2.3436	    0.3832	    1.5362
C	    3.7034	   -3.3651	   -0.3877
H	    2.7509	   -3.7681	   -2.3359
C	   -3.1758	    3.4897	    0.3318
H	   -1.8679	    4.5604	   -1.0573
H	   -4.1445	    2.0971	    1.7118
C	    4.7788	   -4.4156	   -0.5102
C	   -4.2456	    4.5442	    0.3823
H	    4.7375	   -5.1120	    0.3517
H	    5.7812	   -3.9416	   -0.4804
H	    4.6907	   -4.9988	   -1.4470
H	   -4.8975	    4.4264	    1.2687
H	   -4.8910	    4.4800	   -0.5197
H	   -3.8099	    5.5628	    0.3942
