59
BAPZAT charge=0
Ni	   -0.1294	    0.0002	   -0.0000
S	    1.5080	    1.9241	   -3.6885
N	   -0.1585	    0.6065	   -1.8413
N	   -1.6054	   -1.3626	   -0.3737
N	    1.2479	    1.3755	    0.5491
C	    0.5762	    1.1689	   -2.6167
C	   -1.8061	   -1.7379	   -1.6706
C	   -3.0152	   -2.2200	   -2.1294
C	   -4.1558	   -2.3199	   -1.2466
C	   -3.9109	   -1.8776	    0.1070
C	   -2.6622	   -1.4237	    0.4846
C	   -5.3837	   -2.8131	   -1.6643
C	    2.4436	    0.9715	    1.0682
C	    3.5855	    1.7467	    1.0160
C	    3.5733	    3.0379	    0.3699
C	    2.2953	    3.4237	   -0.1815
C	    1.2025	    2.5881	   -0.0779
C	    4.6958	    3.8517	    0.3035
H	   -0.9317	   -1.6455	   -2.3301
H	   -3.0993	   -2.5603	   -3.1722
H	   -4.7116	   -1.9384	    0.8586
H	   -2.4491	   -1.1025	    1.5156
H	   -5.5389	   -3.1403	   -2.7027
H	   -6.2319	   -2.8830	   -0.9678
H	    2.4556	    0.0011	    1.5851
H	    4.5001	    1.3850	    1.5083
H	    2.1759	    4.4054	   -0.6621
H	    0.2210	    2.8752	   -0.4800
H	    4.6568	    4.8293	   -0.1985
H	    5.6519	    3.5337	    0.7441
N	   -0.1589	   -0.6058	    1.8412
N	   -1.6053	    1.3639	    0.3732
N	    1.2476	   -1.3755	   -0.5491
C	    0.5753	   -1.1690	    2.6166
C	   -1.8063	    1.7388	    1.6702
C	   -2.6621	    1.4246	   -0.4850
C	    2.4436	   -0.9718	   -1.0680
C	    1.2020	   -2.5881	    0.0781
S	    1.5063	   -1.9250	    3.6884
C	   -3.0156	    2.2202	    2.1291
H	   -0.9319	    1.6467	    2.3298
C	   -3.9110	    1.8778	   -0.1074
H	   -2.4488	    1.1037	   -1.5161
C	    3.5853	   -1.7472	   -1.0154
H	    2.4558	   -0.0014	   -1.5850
C	    2.2946	   -3.4238	    0.1820
H	    0.2204	   -2.8750	    0.4799
C	   -4.1562	    2.3198	    1.2463
H	   -3.0999	    2.5601	    3.1720
H	   -4.7117	    1.9385	   -0.8590
C	    3.5728	   -3.0383	   -0.3692
H	    4.5001	   -1.3856	   -1.5076
H	    2.1749	   -4.4054	    0.6627
C	   -5.3844	    2.8123	    1.6640
C	    4.6951	   -3.8522	   -0.3025
H	   -5.5397	    3.1393	    2.7025
H	   -6.2326	    2.8821	    0.9676
H	    4.6559	   -4.8298	    0.1995
H	    5.6514	   -3.5344	   -0.7429
