53
BIKLIQ charge=+1
Ni	   -1.7204	   -0.5549	   -0.6683
P	    0.9915	   -1.8954	    0.2227
P	   -1.3669	    0.9749	    0.9626
Cl	   -2.9102	   -1.8212	    0.6696
N	   -0.1771	   -1.5711	   -0.9253
N	   -3.0171	    0.3784	   -1.4907
C	   -0.3101	   -2.7387	   -1.8384
C	    0.9823	   -3.5720	   -1.7695
C	    1.4026	   -3.6081	   -0.2895
C	    0.4162	   -1.8744	    1.9624
C	    0.4069	   -0.5281	    2.7063
C	   -0.8752	    0.3044	    2.6038
C	   -2.8751	    1.7713	    1.1175
C	   -3.4841	    2.4192	   -0.0709
C	   -3.6207	    1.4708	   -1.2967
C	    2.4151	   -0.7925	    0.0437
C	    2.4946	    0.0374	   -1.0914
C	    3.6181	    0.8566	   -1.2707
C	    4.6555	    0.8468	   -0.3254
C	    4.5762	    0.0171	    0.8063
C	    3.4585	   -0.8064	    0.9957
C	   -0.0765	    2.0478	    0.2494
C	   -0.1033	    2.3359	   -1.1332
C	    0.8370	    3.2195	   -1.6826
C	    1.8239	    3.7946	   -0.8672
C	    1.8667	    3.4914	    0.5035
C	    0.9175	    2.6272	    1.0667
H	   -0.5134	   -2.3829	   -2.8685
H	   -1.1850	   -3.3498	   -1.5183
H	    1.7787	   -3.0891	   -2.3731
H	    0.8315	   -4.5927	   -2.1721
H	    2.4651	   -3.8623	   -0.1143
H	    0.7641	   -4.2961	    0.3048
H	   -0.5929	   -2.3424	    1.9283
H	    1.0969	   -2.5853	    2.4774
H	    0.5477	   -0.7496	    3.7840
H	    1.2890	    0.0781	    2.4132
H	   -1.7593	   -0.3008	    2.8943
H	   -0.8193	    1.1669	    3.2982
H	   -3.5552	    1.3090	    1.8535
H	   -4.4870	    2.8306	    0.1618
H	   -2.8759	    3.2733	   -0.4544
H	   -4.2794	    1.8618	   -2.1071
H	    1.6676	    0.0398	   -1.8164
H	    3.6817	    1.5072	   -2.1548
H	    5.5370	    1.4891	   -0.4707
H	    5.3929	    0.0080	    1.5433
H	    3.4099	   -1.4592	    1.8815
H	   -0.8603	    1.8709	   -1.7828
H	    0.8000	    3.4539	   -2.7570
H	    2.5635	    4.4843	   -1.3005
H	    2.6372	    3.9432	    1.1457
H	    0.9446	    2.4281	    2.1479
