54
BMPINN charge=0
Ni	    0.0629	   -1.0175	    0.0759
Br	    1.8780	   -2.5200	   -0.1049
P	   -1.3319	    0.2132	    1.1422
C	   -2.2446	   -0.5095	    2.5716
C	   -1.7126	   -2.7439	   -0.6671
C	   -1.0958	   -1.8491	   -1.5242
C	   -3.1090	   -2.4910	   -0.1617
C	   -1.1711	   -4.1184	   -0.3926
C	   -2.5854	    1.1584	    0.1869
C	   -2.1724	    1.6949	   -1.0530
C	   -3.0661	    2.4384	   -1.8362
C	   -4.3871	    2.6364	   -1.4018
C	   -4.8086	    2.0939	   -0.1779
C	   -3.9124	    1.3614	    0.6169
C	   -0.2791	    1.5409	    1.9171
C	    0.7415	    1.7693	    0.8450
C	    1.3505	    0.5022	    0.3230
C	    2.0032	    0.7089	   -1.0393
C	    1.0122	    2.9891	    0.3161
C	    2.0248	    3.2063	   -0.7753
C	    2.9080	    1.9735	   -1.0197
C	    4.0634	    1.7917	   -0.0430
C	    4.2724	    2.5904	    1.0240
C	    4.9676	    0.6184	   -0.3313
H	   -3.0556	   -1.1811	    2.2387
H	   -1.5206	   -1.0979	    3.1676
H	   -2.6651	    0.2947	    3.2082
H	   -0.2207	   -2.1655	   -2.1135
H	   -1.6591	   -0.9734	   -1.8896
H	   -3.8204	   -3.1261	   -0.7365
H	   -3.4308	   -1.4388	   -0.2852
H	   -3.2284	   -2.7925	    0.8997
H	   -1.8055	   -4.8746	   -0.9084
H	   -0.1239	   -4.2284	   -0.7280
H	   -1.2116	   -4.3588	    0.6910
H	   -1.1406	    1.5216	   -1.3954
H	   -2.7313	    2.8574	   -2.7972
H	   -5.0922	    3.2100	   -2.0223
H	   -5.8444	    2.2420	    0.1639
H	   -4.2586	    0.9470	    1.5753
H	   -0.8531	    2.4377	    2.2240
H	    0.1841	    1.0755	    2.8167
H	    2.0543	    0.0626	    1.0627
H	    2.5715	   -0.1900	   -1.3367
H	    1.2248	    0.8616	   -1.8215
H	    0.4787	    3.8731	    0.7068
H	    3.3631	    2.0598	   -2.0331
H	    2.6485	    4.0981	   -0.5500
H	    1.4921	    3.4636	   -1.7208
H	    3.6023	    3.4250	    1.2770
H	    5.1267	    2.4176	    1.6976
H	    4.4419	   -0.3462	   -0.1587
H	    5.2939	    0.6113	   -1.3937
H	    5.8692	    0.6326	    0.3106
