39
BOTHOH charge=-1
Cu	   -0.2252	   -0.0982	   -0.6887
N	    0.2147	    1.4881	    1.0160
N	   -1.3797	   -1.0561	    1.4093
N	    2.3000	   -0.8904	    1.1657
O	   -0.8812	    1.5881	   -1.5626
O	   -1.8839	   -1.0567	   -1.3795
O	    1.5322	   -0.3984	   -1.5307
O	   -0.8166	    3.8541	   -1.5366
O	   -3.9522	   -1.9318	   -1.0411
O	    3.2959	   -1.5664	   -2.2994
C	   -0.5412	    2.7344	   -1.0906
C	   -2.8532	   -1.4958	   -0.6792
C	    2.5757	   -1.1471	   -1.3867
C	    0.3722	    2.6833	    0.1694
C	   -1.3960	    0.0772	    2.3233
C	    3.0000	   -1.5195	    0.0673
C	   -1.0803	    1.4443	    1.6830
C	   -2.6333	   -1.5648	    0.8870
C	   -0.2105	   -1.4540	    0.7687
C	    1.0869	   -1.5138	    1.6097
C	    2.5108	    0.5452	    1.2731
C	    1.3716	    1.3323	    1.9138
H	    0.2265	    3.6181	    0.7637
H	    1.4159	    2.6888	   -0.2081
H	   -2.4056	    0.1323	    2.7732
H	   -0.6969	   -0.1128	    3.1669
H	    4.0897	   -1.2970	    0.1330
H	    2.9176	   -2.6241	    0.1672
H	   -1.1658	    2.2222	    2.4874
H	   -1.8471	    1.6696	    0.9137
H	   -2.7408	   -2.6432	    1.1351
H	   -3.4791	   -1.0310	    1.3592
H	   -0.3870	   -2.3561	    0.1553
H	    1.3100	   -2.5994	    1.7242
H	    0.8457	   -1.1655	    2.6352
H	    3.4408	    0.7549	    1.8629
H	    2.6805	    0.9779	    0.2602
H	    1.7555	    2.3358	    2.2167
H	    1.0561	    0.8460	    2.8579
