50
BUBCEG charge=+1
Cu	   -0.1519	    0.1421	   -0.1606
N	   -0.0437	    0.5920	    1.9486
N	   -2.1400	   -0.3760	    0.0081
N	    1.6148	    1.1310	   -0.4123
N	    0.6250	   -1.8990	   -0.0559
Cl	   -0.4976	    0.5143	   -2.3618
C	   -2.6196	   -1.0777	   -1.0406
C	   -3.7995	   -0.7392	   -1.7053
C	   -4.4514	    0.4769	   -1.3781
C	   -3.9736	    1.2349	   -0.3251
C	   -2.8673	    0.7373	    0.4457
C	   -2.4660	    1.2722	    1.6685
C	   -1.4552	    0.5297	    2.4721
C	    2.6088	    0.6421	   -1.1776
C	    3.6948	    1.4310	   -1.5671
C	    3.7293	    2.7723	   -1.1603
C	    2.6891	    3.2701	   -0.3644
C	    1.6315	    2.4190	   -0.0029
C	    0.5090	    2.8403	    0.9075
C	    0.5036	    1.9684	    2.1735
C	    0.9072	   -2.4971	   -1.2328
C	    1.4796	   -3.7713	   -1.3150
C	    1.7796	   -4.4420	   -0.1204
C	    1.4806	   -3.8211	    1.0990
C	    0.8874	   -2.5433	    1.1026
C	    0.4759	   -1.8927	    2.4053
C	    0.8304	   -0.4137	    2.6177
H	   -2.0360	   -1.9624	   -1.3382
H	   -4.1971	   -1.4059	   -2.4829
H	   -5.3292	    0.8069	   -1.9528
H	   -4.4358	    2.1923	   -0.0443
H	   -2.9606	    2.1689	    2.0684
H	   -1.7403	   -0.5415	    2.4394
H	   -1.4634	    0.8719	    3.5298
H	    2.5170	   -0.4072	   -1.4924
H	    4.4888	    0.9986	   -2.1917
H	    4.5603	    3.4276	   -1.4611
H	    2.6873	    4.3150	   -0.0227
H	    0.6333	    3.9018	    1.1958
H	   -0.4633	    2.7551	    0.3738
H	    1.5411	    1.8816	    2.5518
H	   -0.0772	    2.4681	    2.9755
H	    0.6447	   -1.9096	   -2.1322
H	    1.6854	   -4.2229	   -2.2959
H	    2.2397	   -5.4415	   -0.1367
H	    1.6983	   -4.3255	    2.0520
H	    0.9493	   -2.4562	    3.2328
H	   -0.6156	   -2.0550	    2.5417
H	    1.8602	   -0.2280	    2.2517
H	    0.8379	   -0.2089	    3.7133
