54
BUXFIJ charge=0
Ta	    0.1156	    0.0069	   -0.2431
Cl	    0.1760	    0.3788	   -2.6587
P	   -0.1829	   -2.0939	    0.9884
P	    2.6340	    0.0955	   -0.4245
P	   -2.3894	   -0.0140	   -0.7621
P	   -0.3485	    1.8320	    1.3245
C	    0.6472	   -3.5813	    0.2067
C	    0.6815	   -2.0051	    2.6449
C	   -1.7508	   -2.9526	    1.5576
C	    3.3610	   -1.0707	   -1.6814
C	    3.3484	    1.7035	   -1.0387
C	    3.7397	   -0.2416	    1.0328
C	   -2.9952	    1.5316	   -1.6131
C	   -3.7898	   -0.2711	    0.4391
C	   -2.8841	   -1.2643	   -2.0546
C	   -1.9425	    2.2815	    2.2119
C	    0.8068	    1.9134	    2.7943
C	   -0.0154	    3.4858	    0.5201
H	    1.7320	   -3.3784	    0.1187
H	    0.4876	   -4.5165	    0.7837
H	    0.2399	   -3.7137	   -0.8159
H	    0.0310	   -1.4694	    3.3630
H	    0.8833	   -3.0244	    3.0329
H	    1.6400	   -1.4600	    2.5528
H	   -1.5270	   -3.8872	    2.1132
H	   -2.3221	   -2.2651	    2.2100
H	   -2.3739	   -3.2035	    0.6764
H	    4.4575	   -0.9389	   -1.7892
H	    3.1406	   -2.1154	   -1.3871
H	    2.8598	   -0.8721	   -2.6492
H	    3.1858	    2.4902	   -0.2757
H	    4.4330	    1.6268	   -1.2619
H	    2.7983	    1.9884	   -1.9574
H	    3.4633	    0.4157	    1.8801
H	    3.6115	   -1.2950	    1.3505
H	    4.8055	   -0.0718	    0.7749
H	   -4.0351	    1.4329	   -1.9884
H	   -2.9438	    2.3842	   -0.9067
H	   -2.3088	    1.7362	   -2.4579
H	   -3.7502	   -1.2999	    0.8396
H	   -3.6999	    0.4319	    1.2865
H	   -4.7685	   -0.1190	   -0.0616
H	   -2.7030	   -2.2833	   -1.6576
H	   -3.9480	   -1.1708	   -2.3573
H	   -2.2282	   -1.1135	   -2.9341
H	   -2.2388	    1.4373	    2.8648
H	   -1.8346	    3.2011	    2.8247
H	   -2.7448	    2.4432	    1.4661
H	    0.5379	    2.7460	    3.4766
H	    0.7617	    0.9618	    3.3597
H	    1.8419	    2.0577	    2.4298
H	   -0.7328	    3.6266	   -0.3121
H	   -0.1236	    4.3233	    1.2403
H	    1.0068	    3.4865	    0.0962
