59
CAKGAZ charge=0
Zn	   -0.0006	    1.0172	    0.0007
C	    1.9608	    0.1012	    1.8321
H	    2.5904	   -0.7814	    1.5230
H	    2.1527	    0.1721	    2.9368
C	    2.5113	    1.3230	    1.1801
N	    1.7354	    1.9783	    0.2583
C	    3.7219	    3.0838	    0.4457
H	    4.5131	    3.8231	    0.2717
C	   -1.4042	   -1.5366	    1.4776
C	   -2.4602	    3.0422	    0.1961
H	   -2.0610	    3.7078	    0.9727
C	   -3.7232	    3.0829	   -0.4456
H	   -4.5147	    3.8219	   -0.2717
C	   -2.5117	    1.3229	   -1.1803
N	   -0.5746	   -0.1068	   -1.5672
C	   -0.0377	   -1.3978	   -1.9365
H	   -0.6266	   -2.2136	   -1.4432
N	    0.5749	   -0.1076	    1.5673
C	    2.4583	    3.0433	   -0.1949
H	    2.0583	    3.7094	   -0.9706
C	    3.7604	    1.9814	    1.3244
H	    4.5742	    1.6925	    2.0005
C	    0.0384	   -1.3987	    1.9366
H	    0.6274	   -2.2144	    1.4434
C	   -2.3207	   -0.4850	    1.6726
H	   -1.9768	    0.4453	    2.1476
C	   -3.6519	   -0.6032	    1.2454
H	   -4.3414	    0.2440	    1.3762
C	   -4.0920	   -1.7895	    0.6371
H	   -5.1351	   -1.8837	    0.2987
C	   -3.1938	   -2.8562	    0.4624
H	   -3.5322	   -3.7913	   -0.0100
C	   -1.8594	   -2.7277	    0.8805
H	   -1.1552	   -3.5629	    0.7367
C	    0.1277	   -1.6509	    3.4638
H	    1.1804	   -1.6622	    3.8101
H	   -0.3272	   -2.6285	    3.7156
H	   -0.4182	   -0.8581	    4.0135
C	   -3.7608	    1.9813	   -1.3252
H	   -4.5739	    1.6928	   -2.0023
C	   -1.9604	    0.1017	   -1.8328
H	   -2.1517	    0.1732	   -2.9375
H	   -2.5899	   -0.7813	   -1.5246
C	   -0.1270	   -1.6500	   -3.4636
H	    0.4188	   -0.8572	   -4.0133
H	   -1.1797	   -1.6614	   -3.8099
H	    0.3280	   -2.6276	   -3.7154
C	    1.4049	   -1.5354	   -1.4776
C	    1.8609	   -2.7267	   -0.8816
H	    1.1571	   -3.5624	   -0.7381
C	    2.3208	   -0.4832	   -1.6722
H	    1.9762	    0.4472	   -2.1463
N	   -1.7367	    1.9777	   -0.2573
C	    3.6523	   -0.6011	   -1.2456
H	    4.3413	    0.2465	   -1.3760
C	    3.1955	   -2.8549	   -0.4641
H	    3.5345	   -3.7902	    0.0075
C	    4.0932	   -1.7877	   -0.6383
H	    5.1364	   -1.8817	   -0.3004
