23
CAXQUN charge=0
Pd	   -1.6954	   -0.1371	    0.2177
S	   -0.0784	   -0.4753	    1.9156
S	   -3.6268	    0.5761	   -1.1239
S	   -1.2075	   -2.1699	   -0.7679
C	    1.3837	   -0.1064	    1.1100
N	    2.5080	   -0.8390	    1.3637
H	    2.4017	   -1.6260	    2.0116
N	    3.7076	   -0.7187	    0.7882
C	    3.8449	    0.1988	   -0.1396
C	    2.7613	    1.1114	   -0.5199
O	    2.8126	    2.0101	   -1.3496
N	    1.5542	    0.9231	    0.2306
N	    0.4953	    1.7079	   -0.1496
H	    0.8776	    2.4217	   -0.7917
H	   -0.0228	    2.0934	    0.6555
C	    5.1458	    0.3364	   -0.8548
H	    5.8947	   -0.3462	   -0.4163
H	    5.5084	    1.3833	   -0.8146
H	    5.0054	    0.0912	   -1.9282
C	   -3.0157	    1.5853	    0.0472
N	   -2.3889	    2.1195	    0.9289
C	    0.3664	   -1.8093	   -1.2391
N	    1.4820	   -1.5617	   -1.5526
