57
CDASCO charge=+1
As	   -1.6875	   -1.5779	    0.3206
As	   -1.6818	    1.6621	    0.2317
Cl	    0.4869	    0.0625	    2.2244
Co	    0.0062	   -0.0094	    0.0259
C	   -3.3882	   -0.6659	    0.0073
C	   -1.5640	    3.1087	   -0.8911
C	   -3.3630	    0.7324	   -0.1199
C	   -4.5375	    1.4556	   -0.3930
C	   -5.7506	    0.7638	   -0.5325
C	   -5.7884	   -0.6328	   -0.3901
C	   -4.6109	   -1.3488	   -0.1219
C	   -1.7828	   -3.0629	   -0.9438
C	   -1.9226	   -2.4308	    2.0599
C	   -1.8921	    2.3954	    2.0279
H	   -1.6208	    2.9461	   -1.9777
H	   -1.1743	    4.0675	   -0.5159
H	   -4.5031	    2.5504	   -0.5003
H	   -6.6730	    1.3207	   -0.7551
H	   -6.7419	   -1.1711	   -0.4965
H	   -4.6567	   -2.4446	   -0.0211
H	   -1.6392	   -2.6439	   -1.9567
H	   -2.7658	   -3.5646	   -0.8698
H	   -0.9833	   -3.7888	   -0.7069
H	   -2.9093	   -2.9290	    2.1051
H	   -1.8363	   -1.6555	    2.8425
H	   -1.1134	   -3.1715	    2.2004
H	   -1.8113	    1.5628	    2.7484
H	   -2.8745	    2.8976	    2.0951
H	   -1.0733	    3.1133	    2.2178
As	    1.6860	    1.5719	   -0.2844
As	    1.6892	   -1.6530	   -0.2806
Cl	   -0.5087	   -0.0554	   -2.1875
C	    3.3935	    0.6653	    0.0084
C	    1.7818	    3.0607	    0.9750
C	    1.9059	    2.4232	   -2.0267
C	    1.5606	   -3.1056	    0.8343
C	    3.3745	   -0.7368	    0.0855
C	    1.8798	   -2.3642	   -2.0850
C	    4.6134	    1.3485	    0.1604
H	    1.6511	    2.6458	    1.9912
H	    2.7588	    3.5721	    0.8887
H	    0.9736	    3.7784	    0.7425
H	    2.8914	    2.9233	   -2.0773
H	    1.8165	    1.6468	   -2.8078
H	    1.0936	    3.1612	   -2.1632
H	    1.6095	   -2.9431	    1.9217
H	    1.1571	   -4.0586	    0.4589
C	    4.5523	   -1.4651	    0.3291
H	    1.7803	   -1.5266	   -2.7972
H	    2.8662	   -2.8558	   -2.1702
H	    1.0658	   -3.0889	   -2.2695
C	    5.7940	    0.6277	    0.4007
H	    4.6545	    2.4473	    0.0992
C	    5.7627	   -0.7734	    0.4912
H	    4.5229	   -2.5631	    0.3981
H	    6.7454	    1.1658	    0.5259
H	    6.6879	   -1.3339	    0.6918
