42
CEYFER charge=0
Ir	    1.6427	   -0.2616	    0.2853
Cl	    1.0094	   -1.5747	    2.1777
P	   -0.6381	    0.0929	   -0.0663
O	    2.1538	   -2.5275	   -1.6577
C	    1.9654	   -1.7060	   -0.8581
C	    3.2912	    0.8888	   -0.1677
C	    3.2552	    1.8451	    0.9719
C	    1.8965	    1.8279	    0.6357
C	    2.2998	    1.7406	   -0.8553
C	   -1.4442	   -1.3519	   -0.8535
C	   -1.2850	   -2.6239	   -0.2617
C	   -1.9192	   -3.7373	   -0.8284
C	   -2.7063	   -3.5939	   -1.9833
C	   -2.8652	   -2.3294	   -2.5705
C	   -2.2387	   -1.2059	   -2.0094
C	   -1.6511	    0.4836	    1.4046
C	   -1.0876	    1.2436	    2.4488
C	   -1.8769	    1.6051	    3.5487
C	   -3.2211	    1.2029	    3.6162
C	   -3.7795	    0.4381	    2.5799
C	   -2.9983	    0.0752	    1.4725
C	   -0.8526	    1.4843	   -1.2210
C	   -0.1587	    1.4481	   -2.4519
C	   -0.2970	    2.5055	   -3.3618
C	   -1.1012	    3.6091	   -3.0403
C	   -1.7725	    3.6568	   -1.8071
C	   -1.6507	    2.5989	   -0.8951
H	   -0.6622	   -2.7305	    0.6417
H	   -1.7909	   -4.7273	   -0.3656
H	   -3.1964	   -4.4729	   -2.4287
H	   -3.4824	   -2.2120	   -3.4740
H	   -2.3690	   -0.2155	   -2.4692
H	   -0.0303	    1.5432	    2.3906
H	   -1.4342	    2.1958	    4.3644
H	   -3.8354	    1.4813	    4.4860
H	   -4.8306	    0.1169	    2.6333
H	   -3.4346	   -0.5282	    0.6626
H	    0.4747	    0.5838	   -2.7017
H	    0.2427	    2.4718	   -4.3196
H	   -1.1998	    4.4428	   -3.7518
H	   -2.3983	    4.5250	   -1.5518
H	   -2.1772	    2.6355	    0.0696
