28
CMTPCU charge=0
Cl	    4.0777	    0.0488	   -1.9250
Cl	    2.3526	   -2.1061	    1.2994
Cu	    3.0800	   -0.8672	   -0.2775
C	   -3.8219	   -0.7221	   -0.1116
C	    0.8722	    3.0383	    0.9378
C	    2.2709	    3.0091	    1.0617
C	    2.9953	    1.8823	    0.6476
C	    2.2149	    0.8159	    0.1557
C	   -3.3472	    0.6230	   -0.0958
C	   -4.2476	    1.7341	   -0.3865
C	   -5.5413	    1.4399	   -0.6596
C	   -6.0544	    0.1374	   -0.6929
C	   -5.1912	   -0.9305	   -0.4197
C	   -1.2083	   -1.7510	    0.6148
C	   -1.2085	    1.8031	    0.2910
C	    0.2074	    1.9057	    0.4215
H	   -3.7817	    2.7381	   -0.3519
H	    2.8059	    3.8833	    1.4634
H	    4.0907	    1.8323	    0.6769
H	   -7.1132	   -0.0711	   -0.9211
H	   -5.5735	   -1.9637	   -0.4362
H	   -1.1518	   -1.1974	    1.5703
H	   -0.6859	   -1.1837	   -0.1776
H	   -0.6901	   -2.7209	    0.7431
H	    0.2894	    3.9219	    1.2312
N	   -2.0635	    0.9418	    0.1779
N	    0.9349	    0.7981	    0.0309
S	   -2.9105	   -2.2004	    0.1775
