35
CUNNAA charge=-1
Fe	   -0.2187	   -0.1731	   -1.0013
N	   -1.3486	    0.2113	    1.1720
C	   -0.6030	   -0.0660	    2.3970
C	    0.7987	    0.5485	    2.4190
N	    1.6058	    0.0668	    1.3358
O	   -2.1176	   -0.2533	   -1.3209
C	   -3.0174	   -0.6010	   -0.4457
O	   -4.1957	   -0.8471	   -0.6981
C	   -2.4889	   -0.6855	    0.9955
O	   -0.0169	    1.6526	   -0.7307
C	   -0.6879	    2.3868	    0.1289
O	   -0.5465	    3.6011	    0.2232
C	   -1.6873	    1.6239	    1.0081
O	   -0.0101	   -1.8020	   -0.1843
C	    1.0007	   -2.2972	    0.5069
O	    1.1910	   -3.5054	    0.5933
C	    1.9130	   -1.3383	    1.3152
O	    1.8266	   -0.1731	   -1.3099
C	    2.7613	    0.5720	   -0.7871
O	    3.7832	    0.9312	   -1.3712
C	    2.5447	    0.9515	    0.6907
O	   -0.0609	   -0.3771	   -2.7157
H	    0.7314	    1.6537	    2.3427
H	    1.2361	    0.3321	    3.4343
H	   -1.1729	    0.2918	    3.2917
H	   -0.5231	   -1.1675	    2.4957
H	    3.5547	    0.9830	    1.1738
H	    2.1415	    1.9850	    0.7040
H	    1.9414	   -1.7726	    2.3449
H	    2.9307	   -1.4995	    0.9028
H	   -2.6668	    1.7077	    0.4945
H	   -1.7835	    2.1563	    1.9812
H	   -3.3228	   -0.4709	    1.7037
H	   -2.1411	   -1.7244	    1.1650
H	    0.9324	   -0.3048	   -2.8097
