49
DEDSIQ charge=+1
Co	   -0.0000	    0.0671	    0.0009
S	   -4.2790	    0.5336	   -0.7692
S	    4.2797	    0.5331	    0.7662
N	   -1.7925	   -0.0119	   -0.3144
N	   -2.1445	    2.0839	   -1.3726
N	    0.1578	    1.4249	   -1.3259
H	    1.0884	    1.6147	   -1.7104
N	   -0.5711	    3.3874	   -2.3816
H	    0.3652	    3.6525	   -2.6818
H	   -1.3744	    3.8965	   -2.7514
N	    1.7925	   -0.0129	    0.3157
N	    2.1460	    2.0842	    1.3707
N	   -0.1565	    1.4259	    1.3266
H	   -1.0866	    1.6154	    1.7126
N	    0.5742	    3.3882	    2.3816
H	   -0.3617	    3.6536	    2.6827
H	    1.3780	    3.8971	    2.7504
O	   -0.3739	   -1.3452	    1.2703
O	   -2.0322	   -2.7693	    1.8702
O	    0.3723	   -1.3466	   -1.2674
O	    2.0295	   -2.7720	   -1.8673
C	   -3.9318	   -1.0188	    0.2490
C	   -2.4134	   -1.2412	    0.0167
H	   -2.2200	   -1.9858	   -0.7982
C	   -1.5595	   -1.8705	    1.1955
C	   -4.7670	   -2.1879	   -0.2670
H	   -4.4858	   -3.0949	    0.3058
H	   -4.5878	   -2.3779	   -1.3427
H	   -5.8488	   -2.0092	   -0.1135
C	   -4.2525	   -0.6797	    1.7124
H	   -5.3076	   -0.3606	    1.8101
H	   -3.6082	    0.1389	    2.0917
H	   -4.0869	   -1.5756	    2.3420
C	   -2.5729	    0.9725	   -0.8246
C	   -0.8168	    2.2637	   -1.6646
C	    3.9310	   -1.0201	   -0.2503
C	    2.4130	   -1.2424	   -0.0156
H	    2.2210	   -1.9866	    0.8000
C	    1.5577	   -1.8725	   -1.1929
C	    4.7672	   -2.1887	    0.2655
H	    4.5896	   -2.3778	    1.3416
H	    5.8487	   -2.0101	    0.1102
H	    4.4851	   -3.0962	   -0.3062
C	    4.2497	   -0.6822	   -1.7144
H	    4.0834	   -1.5786	   -2.3430
H	    5.3045	   -0.3629	   -1.8138
H	    3.6046	    0.1360	   -2.0934
C	    2.5736	    0.9720	    0.8235
C	    0.8187	    2.2644	    1.6643
