18
DUGSIH charge=0
Mo	    0.0131	   -0.0850	   -0.0242
Cl	    0.2537	    1.3604	    1.8425
Cl	   -1.3982	   -1.5815	    1.1052
C	   -0.3001	    1.9337	   -1.0479
C	   -1.6151	    1.5300	   -0.6275
C	   -2.0592	    0.2870	   -1.1084
C	   -1.1438	   -0.4615	   -1.9274
C	    2.3135	    0.7248	   -0.9371
C	    1.8201	   -0.5572	   -1.2461
C	    1.2285	   -1.7368	   -0.7655
C	    1.7636	   -1.2588	    0.6139
C	    2.3100	   -0.0788	    0.2081
H	    0.1714	    2.7858	   -0.5387
H	   -0.0216	    1.8347	   -2.1093
H	   -2.1774	    2.0630	    0.1538
H	   -2.9745	   -0.1689	   -0.7035
H	   -1.3752	   -1.5209	   -2.1114
H	   -0.6196	    0.0378	   -2.7609
