39
ESISOQ charge=0
Fe	    0.0000	    0.0000	    0.0000
O	   -1.3962	   -0.9247	    0.8732
O	    0.1521	    1.1541	    1.4179
N	   -1.3935	    1.0226	   -0.9835
C	   -2.5822	   -0.4995	    0.4758
C	   -2.6762	    0.5373	   -0.4995
C	   -3.9118	    1.0305	   -0.9261
C	   -5.0978	    0.4933	   -0.3965
C	   -5.0248	   -0.5404	    0.5579
C	   -3.7922	   -1.0372	    0.9918
C	    0.0917	    2.5261	    1.2412
H	   -1.3127	    2.0486	   -0.9336
H	   -1.2193	    0.7268	   -1.9579
H	   -3.9478	    1.8359	   -1.6773
H	   -6.0732	    0.8778	   -0.7280
H	   -5.9528	   -0.9630	    0.9729
H	   -3.7249	   -1.8382	    1.7424
H	    0.7757	    2.8602	    0.4185
H	    0.3918	    3.0486	    2.1790
H	   -0.9374	    2.8975	    0.9894
O	    1.3962	    0.9247	   -0.8732
O	   -0.1521	   -1.1541	   -1.4179
N	    1.3935	   -1.0226	    0.9835
C	    2.5822	    0.4995	   -0.4758
C	    2.6762	   -0.5373	    0.4995
C	    3.9118	   -1.0305	    0.9261
C	    5.0978	   -0.4933	    0.3965
C	    5.0248	    0.5404	   -0.5579
C	    3.7922	    1.0372	   -0.9918
C	   -0.0917	   -2.5261	   -1.2412
H	    1.3127	   -2.0486	    0.9336
H	    1.2193	   -0.7268	    1.9579
H	    3.9478	   -1.8359	    1.6773
H	    6.0732	   -0.8778	    0.7280
H	    5.9528	    0.9630	   -0.9729
H	    3.7249	    1.8382	   -1.7424
H	   -0.7757	   -2.8602	   -0.4185
H	   -0.3918	   -3.0486	   -2.1790
H	    0.9374	   -2.8975	   -0.9894
