62
FADNUT charge=0
Ag	   -1.3922	   -1.4157	   -0.9485
Cl	   -4.1320	   -1.4751	   -0.0406
O	   -4.4291	   -0.9246	    1.3026
O	   -3.0604	   -2.6043	    0.0707
O	   -5.3330	   -1.9673	   -0.7361
O	   -3.4085	   -0.3925	   -0.9121
C	    2.9358	    3.9351	   -0.9092
C	    3.1516	    2.6937	   -0.3399
C	    2.1053	    1.9788	    0.3306
C	    2.3171	    0.7020	    0.9352
C	    1.2324	    0.0467	    1.5904
C	    1.4099	   -1.1752	    2.3124
C	    0.3290	   -1.8896	    2.8022
C	   -0.9964	   -1.4147	    2.5996
C	   -1.2059	   -0.1926	    1.9840
C	   -0.1072	    0.5969	    1.5019
C	   -0.3205	    1.8662	    0.9018
C	    0.7800	    2.5748	    0.3409
C	    0.6016	    3.8691	   -0.2443
C	    1.6505	    4.5380	   -0.8502
C	   -1.6950	    2.4379	    0.8701
C	   -2.3988	    2.5881	   -0.3439
C	   -3.7099	    3.0822	   -0.3520
C	   -4.3351	    3.4462	    0.8502
C	   -3.6424	    3.3100	    2.0636
C	   -2.3349	    2.8058	    2.0748
C	    3.6598	    0.0614	    0.8359
C	    4.7705	    0.7289	    1.4018
C	    6.0723	    0.2243	    1.3030
C	    6.3004	   -0.9849	    0.6265
C	    5.2184	   -1.6876	    0.0919
C	    3.8951	   -1.1883	    0.1722
C	    0.6268	    1.5618	   -3.2402
C	   -0.3867	    0.9072	   -2.6950
C	   -0.0481	   -0.1352	   -1.9205
C	    1.3254	   -0.4626	   -1.7128
C	    2.3341	    0.3013	   -2.3898
C	    1.9078	    1.3739	   -3.1855
C	    0.3986	   -2.4745	   -0.6973
C	    1.5583	   -1.6642	   -0.8895
C	    2.7960	   -2.0858	   -0.2734
C	    2.8539	   -3.4421	    0.1504
C	    1.6949	   -4.0120	    0.2939
C	    0.5169	   -3.7440	   -0.2608
H	    3.7621	    4.4533	   -1.4182
H	    4.1461	    2.2359	   -0.4137
H	    2.4295	   -1.5591	    2.4554
H	    0.4975	   -2.8377	    3.3342
H	   -1.8611	   -2.0114	    2.9235
H	   -2.2311	    0.1784	    1.8499
H	   -0.3966	    4.3262	   -0.2040
H	    1.4875	    5.5321	   -1.2926
H	   -1.9185	    2.2759	   -1.2841
H	   -4.2521	    3.1650	   -1.3057
H	   -5.3674	    3.8273	    0.8431
H	   -4.1263	    3.5921	    3.0109
H	   -1.7930	    2.6916	    3.0260
H	    4.5884	    1.6662	    1.9480
H	    6.9081	    0.7723	    1.7633
H	    7.3190	   -1.3899	    0.5332
H	    5.3749	   -2.6557	   -0.4060
H	    3.3892	    0.0022	   -2.2670
