83
HEWLEB charge=0
C	    0.8335	   -3.0092	   -1.9051
C	    1.5523	   -3.0765	   -3.1214
H	    1.0121	   -3.1028	   -4.0782
C	    2.9462	   -3.1196	   -3.0746
H	    3.5173	   -3.1814	   -4.0136
C	    3.6505	   -3.0903	   -1.8413
H	    4.7504	   -3.1265	   -1.8513
C	    2.9757	   -2.9992	   -0.6236
H	    3.5251	   -2.9759	    0.3292
C	    1.5620	   -2.9348	   -0.6338
C	    0.5572	   -2.7468	    0.4311
C	   -0.7210	   -2.8577	   -0.2224
C	   -0.5625	   -2.7867	   -1.5525
C	    0.6618	    2.1451	    1.1627
H	   -0.0371	    2.0138	    2.0137
H	    1.5083	    2.7605	    1.5247
C	   -0.0076	    2.8536	   -0.0091
H	    0.3154	    2.4059	   -0.9785
C	   -1.5429	    2.8895	    0.0497
H	   -1.8275	    3.0444	    1.1196
C	   -2.3141	    1.7156	   -0.5443
H	   -2.1365	    1.7092	   -1.6390
H	   -3.4018	    1.8640	   -0.3839
C	   -0.6785	    4.8800	   -0.7980
C	   -0.9572	    6.2639	   -0.2287
H	   -1.7540	    6.7629	   -0.8123
H	   -0.0427	    6.8871	   -0.2664
H	   -1.2840	    6.1705	    0.8243
C	   -0.2415	    4.9023	   -2.2650
H	   -0.0154	    3.8773	   -2.6181
H	    0.6608	    5.5326	   -2.3901
H	   -1.0549	    5.3101	   -2.8960
C	   -3.3450	   -0.8647	   -0.9540
C	   -4.5308	   -1.2451	   -0.2991
H	   -4.6353	   -1.1006	    0.7863
C	   -5.5828	   -1.8200	   -1.0316
H	   -6.5040	   -2.1260	   -0.5124
C	   -5.4576	   -2.0069	   -2.4159
H	   -6.2820	   -2.4600	   -2.9876
C	   -4.2759	   -1.6194	   -3.0707
H	   -4.1721	   -1.7671	   -4.1564
C	   -3.2175	   -1.0561	   -2.3454
H	   -2.2796	   -0.7695	   -2.8488
C	   -2.3974	   -0.2396	    1.7092
C	   -2.2480	   -1.5196	    2.2852
H	   -1.8971	   -2.3503	    1.6465
C	   -2.5382	   -1.7275	    3.6394
H	   -2.4172	   -2.7313	    4.0739
C	   -2.9691	   -0.6567	    4.4421
H	   -3.1842	   -0.8164	    5.5097
C	   -3.1339	    0.6156	    3.8741
H	   -3.4845	    1.4563	    4.4918
C	   -2.8622	    0.8226	    2.5107
H	   -3.0161	    1.8214	    2.0803
C	    1.7756	   -0.2654	    2.2738
C	    0.8257	   -0.3158	    3.3162
H	   -0.1621	    0.1506	    3.1939
C	    1.1186	   -0.9833	    4.5141
H	    0.3621	   -1.0120	    5.3130
C	    2.3601	   -1.6161	    4.6875
H	    2.5874	   -2.1430	    5.6266
C	    3.3101	   -1.5713	    3.6550
H	    4.2876	   -2.0613	    3.7823
C	    3.0224	   -0.8995	    2.4566
H	    3.7749	   -0.8642	    1.6553
C	    2.9560	    0.9184	   -0.0743
C	    3.8692	    1.7214	    0.6431
H	    3.6030	    2.1083	    1.6394
C	    5.1290	    2.0169	    0.1055
H	    5.8325	    2.6446	    0.6735
C	    5.4913	    1.5119	   -1.1554
H	    6.4806	    1.7456	   -1.5780
C	    4.5891	    0.7132	   -1.8724
H	    4.8626	    0.3161	   -2.8616
C	    3.3255	    0.4166	   -1.3362
H	    2.6128	   -0.1927	   -1.9105
Cl	    0.1327	    0.4998	   -2.6188
O	   -1.8699	    4.0629	   -0.6900
O	    0.2987	    4.2484	    0.0265
P	   -1.9415	   -0.0490	   -0.0676
P	    1.3074	    0.4789	    0.6471
Ru	    0.0312	   -0.9235	   -0.6855
H	    0.7764	   -2.7568	    1.5071
