62
IKODAO charge=+1
Ir	    0.8364	   -0.0908	   -0.1812
P	    0.9056	    0.8316	    1.9815
O	   -3.8784	    0.4971	    0.9604
O	   -4.0491	   -1.7585	    0.7416
O	   -1.3866	    2.6355	    0.3854
O	   -2.5385	    1.6632	   -1.3122
N	    2.9101	   -0.4248	   -0.0320
N	    1.2032	    1.8005	   -1.1200
C	    0.2320	   -1.9487	    0.5916
H	    0.3165	   -1.9435	    1.6997
C	   -1.2754	   -2.1401	    0.2633
H	   -1.7200	   -2.8614	    0.9810
C	   -1.5562	   -2.6841	   -1.1583
H	   -1.0004	   -3.6292	   -1.3136
H	   -2.6293	   -2.9551	   -1.2134
C	   -1.2747	   -1.6663	   -2.2782
H	   -1.3465	   -2.1786	   -3.2654
H	   -2.0742	   -0.8996	   -2.2896
C	    0.0494	   -0.9428	   -2.2852
H	    0.0515	   -0.0157	   -2.8836
C	    1.2999	   -1.4800	   -1.9772
H	    2.1684	   -0.9679	   -2.4224
C	    1.5300	   -2.8845	   -1.4412
H	    2.5918	   -3.1545	   -1.6024
H	    0.9443	   -3.5947	   -2.0602
C	    1.1749	   -3.0391	    0.0631
H	    2.1131	   -2.9886	    0.6520
H	    0.7551	   -4.0509	    0.2587
C	   -1.1623	    0.2647	   -0.0317
C	   -1.9415	   -0.7860	    0.3538
C	   -3.3669	   -0.5865	    0.7034
C	   -5.4352	   -1.6551	    1.0999
H	   -5.5474	   -1.1891	    2.0991
H	   -5.8279	   -2.6867	    1.1055
H	   -5.9844	   -1.0343	    0.3642
C	   -1.7079	    1.6357	   -0.2484
C	   -3.2699	    2.8823	   -1.5082
H	   -3.9756	    3.0268	   -0.6660
H	   -3.8219	    2.7605	   -2.4564
H	   -2.5901	    3.7561	   -1.5612
C	    4.0629	   -0.6048	    0.0502
C	    5.4905	   -0.8405	    0.1575
H	    6.0475	   -0.1629	   -0.5205
H	    5.7271	   -1.8885	   -0.1165
H	    5.8339	   -0.6624	    1.1968
C	    1.1025	    2.8845	   -1.5475
C	    0.9086	    4.2414	   -2.0200
H	    1.8428	    4.8301	   -1.9272
H	    0.1164	    4.7187	   -1.4070
H	    0.5915	    4.2429	   -3.0819
C	    2.1791	    0.0063	    3.0207
H	    3.1887	    0.2277	    2.6284
H	    2.0221	   -1.0896	    3.0110
H	    2.1087	    0.3758	    4.0626
C	    1.3478	    2.6059	    2.0498
H	    0.5286	    3.1594	    1.5530
H	    2.3001	    2.7738	    1.5114
H	    1.4491	    2.9378	    3.1019
C	   -0.6162	    0.6941	    2.9889
H	   -0.4102	    1.0935	    4.0017
H	   -0.9248	   -0.3656	    3.0629
H	   -1.4301	    1.2714	    2.5128
