35
INOCUK charge=0
Cd	   -0.0000	    0.0001	    0.0001
O	    0.6666	    2.0419	   -0.2748
O	    2.4653	    3.3788	   -0.3301
O	    4.8053	   -2.4389	    0.3340
O	    0.6685	   -1.2410	   -2.0399
N	    2.2984	   -0.0818	    0.3590
N	    2.8753	   -1.2121	    0.6145
C	    1.9572	    2.2627	   -0.1936
C	    2.8404	    1.0837	    0.0981
C	    4.3294	    1.1644	    0.1174
H	    4.6951	    1.3454	    1.1545
H	    4.6221	    2.0570	   -0.4754
C	    4.8807	   -0.1406	   -0.4440
H	    4.6706	   -0.2167	   -1.5341
H	    5.9702	   -0.2545	   -0.3030
C	    4.2128	   -1.3854	    0.1943
H	    0.0360	   -1.1900	   -2.7817
H	    0.4023	   -2.0576	   -1.5565
O	   -0.6666	   -2.0418	    0.2748
O	   -2.4651	   -3.3789	    0.3297
O	   -4.8056	    2.4387	   -0.3341
O	   -0.6680	    1.2409	    2.0403
N	   -2.2985	    0.0818	   -0.3588
N	   -2.8754	    1.2122	   -0.6143
C	   -1.9571	   -2.2627	    0.1935
C	   -2.8403	   -1.0837	   -0.0982
C	   -4.3293	   -1.1645	   -0.1178
H	   -4.6949	   -1.3454	   -1.1549
H	   -4.6221	   -2.0572	    0.4749
C	   -4.8808	    0.1404	    0.4437
H	   -4.6710	    0.2163	    1.5339
H	   -5.9704	    0.2542	    0.3025
C	   -4.2130	    1.3853	   -0.1944
H	   -0.0354	    1.1897	    2.7820
H	   -0.4019	    2.0577	    1.5570
