72
IPIPUS charge=0
Cd	    0.5750	   -0.8665	   -0.6554
C	   -4.5499	   -1.9320	    0.1038
H	   -3.7161	   -2.5116	   -0.3250
O	    1.8814	    2.6397	   -0.3756
C	    0.8916	    3.5689	   -0.4388
N	    0.4969	   -0.2102	    1.5341
C	   -4.3047	   -0.9371	    1.0696
N	   -0.7461	    0.8587	   -1.3536
O	   -1.1349	   -2.4402	   -0.3831
N	   -2.5008	    0.7495	    1.4349
C	    0.8933	    4.7730	    0.2985
H	    1.7357	    5.0216	    0.9568
O	    4.2050	   -1.4790	   -2.1791
O	    3.1446	    0.7354	    1.4475
N	    3.0783	   -1.3116	   -1.7387
O	   -0.6663	   -2.1406	   -2.5018
N	   -1.4029	   -2.6869	   -1.6387
O	    2.5347	   -0.1313	   -1.7258
C	   -2.7606	    1.4265	    0.2230
H	   -2.4404	    2.4819	    0.2913
H	   -3.8426	    1.3655	   -0.0081
C	   -0.2195	    1.9736	   -2.1156
H	   -0.8391	    2.1495	   -3.0270
H	    0.8102	    1.7171	   -2.4336
C	    3.0196	    2.8807	    0.4468
H	    2.7062	    3.1936	    1.4686
H	    3.6407	    3.6940	    0.0079
O	    2.3812	   -2.2619	   -1.2469
C	   -0.1927	    3.2717	   -1.3125
C	    3.8295	    1.6062	    0.5504
H	    3.9150	    1.1343	   -0.4530
H	    4.8445	    1.8540	    0.9381
C	    2.5255	   -1.4680	    2.0566
C	   -1.5044	    1.2077	    2.3198
H	   -1.6026	    2.2995	    2.4810
H	   -1.5871	    0.6733	    3.2839
C	    1.2069	   -0.9191	    2.5720
H	    0.6029	   -1.7902	    2.9237
H	    1.3808	   -0.2595	    3.4564
C	   -1.2486	    4.1946	   -1.4047
H	   -2.0758	    3.9750	   -2.0990
C	   -2.1180	    0.7790	   -1.1710
H	   -2.4629	   -0.2748	   -1.1221
H	   -2.7056	    1.3199	   -1.9516
C	   -2.8936	   -0.6567	    1.5415
H	   -2.7801	   -0.9439	    2.6070
H	   -2.1705	   -1.2840	    0.9566
C	   -1.2598	    5.3861	   -0.6615
H	   -2.0934	    6.0961	   -0.7632
C	    3.4776	   -0.5897	    1.4705
O	   -2.3553	   -3.4089	   -1.9273
C	   -0.1826	    5.6677	    0.1896
H	   -0.1650	    6.6015	    0.7719
C	   -5.3901	   -0.2166	    1.6120
H	   -5.2020	    0.5599	    2.3712
C	    0.0562	    1.0763	    1.8095
H	    0.6073	    1.5704	    2.6434
H	    0.0944	    1.7304	    0.9257
C	    2.8122	   -2.8411	    2.0992
H	    2.0615	   -3.5232	    2.5288
C	   -6.9394	   -1.4686	    0.2191
H	   -7.9677	   -1.6745	   -0.1152
C	   -5.8648	   -2.1937	   -0.3161
H	   -6.0415	   -2.9722	   -1.0735
C	    4.6845	   -1.0972	    0.9575
H	    5.4143	   -0.4285	    0.4831
C	    4.9405	   -2.4757	    1.0098
H	    5.8729	   -2.8624	    0.5730
C	   -6.6996	   -0.4775	    1.1866
H	   -7.5391	    0.0915	    1.6147
C	    4.0129	   -3.3523	    1.5857
H	    4.2096	   -4.4335	    1.6133
