55
IRAQUO charge=+1
O	    0.9594	   -0.9705	   -0.8665
C	    2.9985	    0.3749	   -0.7866
C	   -0.7483	    0.3157	    3.0686
H	   -1.4284	   -0.5542	    3.1897
H	   -0.8897	    1.0188	    3.9180
C	    0.6997	    2.6506	    1.1717
H	    0.7208	    3.5641	    0.5409
H	    1.3480	    2.8573	    2.0516
N	   -0.8886	    0.9194	    1.8051
C	    3.1769	    2.8292	   -0.0451
H	    2.5394	    3.6658	   -0.3934
H	    4.0844	    2.8286	   -0.6667
H	    3.4664	    3.0626	    1.0010
N	    0.8881	   -0.9203	    1.8052
C	    4.3783	    0.3776	   -1.1374
H	    5.0113	    1.2228	   -0.8381
C	   -0.7363	    2.3414	    1.6348
H	   -0.9852	    2.8937	    2.5653
H	   -1.4401	    2.6670	    0.8404
C	    0.7469	   -0.3173	    3.0689
H	    0.8879	   -1.0208	    3.9180
H	    1.4270	    0.5526	    3.1908
C	    2.2174	   -0.7914	   -1.1488
C	    2.4104	    1.5300	   -0.1151
C	    4.9758	   -0.6707	   -1.8297
H	    6.0482	   -0.6308	   -2.0668
C	    4.1947	   -1.7817	   -2.2266
H	    4.6544	   -2.6065	   -2.7919
C	    2.8515	   -1.8395	   -1.8912
H	    2.2205	   -2.6938	   -2.1751
C	   -2.4103	   -1.5299	   -0.1162
C	   -3.1769	   -2.8292	   -0.0471
H	   -2.5394	   -3.6656	   -0.3956
H	   -4.0843	   -2.8281	   -0.6689
H	   -3.4667	   -3.0631	    0.9988
Co	    0.0000	   -0.0002	    0.4318
O	   -0.9589	    0.9706	   -0.8665
N	   -1.2218	   -1.4881	    0.4484
N	    1.2218	    1.4878	    0.4494
C	    0.7359	   -2.3422	    1.6340
H	    1.4401	   -2.6674	    0.8399
H	    0.9845	   -2.8951	    2.5644
C	   -4.3781	   -0.3766	   -1.1377
H	   -5.0112	   -1.2219	   -0.8388
C	   -2.9983	   -0.3744	   -0.7871
C	   -0.6998	   -2.6514	    1.1701
H	   -1.3485	   -2.8589	    2.0495
H	   -0.7205	   -3.5644	    0.5385
C	   -2.2170	    0.7919	   -1.1488
C	   -2.8509	    1.8404	   -1.8908
H	   -2.2198	    2.6947	   -2.1744
C	   -4.9755	    0.6721	   -1.8295
H	   -6.0480	    0.6325	   -2.0665
C	   -4.1942	    1.7831	   -2.2260
H	   -4.6537	    2.6082	   -2.7909
