31
JIJFIR charge=0
La	    0.8683	    0.1022	    0.0024
O	   -1.4927	   -2.9748	   -0.0265
O	    1.8352	    2.1146	   -1.3555
O	    3.1906	   -0.1587	   -1.0239
O	    3.1247	    0.3490	    1.1024
O	    5.0608	    0.0425	    0.1161
O	    0.7734	   -1.7649	    1.6517
O	    0.2759	    0.2259	    2.4078
O	    0.2195	   -1.5035	    3.7602
O	    0.4318	   -2.1453	   -1.3439
O	    0.1728	   -0.4244	   -2.6841
O	   -0.9176	   -2.2783	   -3.1340
N	    3.8563	    0.0755	    0.0779
N	   -1.8684	   -0.6888	    0.0193
N	   -0.8721	    2.0524	   -0.0636
N	    0.4158	   -1.0387	    2.6665
N	   -0.1737	   -1.5882	   -2.4995
C	   -2.4016	   -1.9277	    0.1026
C	   -3.7716	   -2.2355	    0.2916
C	   -4.3353	   -1.0540	    0.3571
C	   -4.1348	    0.2434	    0.3109
C	   -2.7367	    0.3773	    0.1285
C	   -0.8741	    3.3730	   -0.0945
C	   -1.1544	    4.6920	   -0.1083
C	   -2.3505	    3.9779	    0.0207
C	   -3.0684	    2.8840	    0.1123
C	   -2.2275	    1.7416	    0.0615
H	   -0.3231	   -2.7052	   -0.8634
H	   -2.0197	   -3.8014	    0.0242
H	    2.6588	    1.7605	   -1.7552
H	    1.6184	    2.9494	   -1.8080
