25
KETGOG charge=0
Ni	    1.8928	    0.0003	    0.0790
S	    0.4166	    1.5552	   -0.0372
S	    0.4168	   -1.5548	   -0.0372
S	   -2.4805	    1.6928	   -0.6436
S	   -2.4802	   -1.6928	   -0.6437
C	   -1.0655	    0.6980	   -0.2934
C	   -1.0654	   -0.6978	   -0.2934
C	   -3.6048	    1.2937	    0.7588
H	   -3.0002	    1.3174	    1.6889
H	   -4.2902	    2.1653	    0.7874
C	   -4.4074	   -0.0002	    0.6300
H	   -4.9595	   -0.0002	   -0.3334
H	   -5.1749	   -0.0003	    1.4374
C	   -3.6047	   -1.2940	    0.7587
H	   -4.2899	   -2.1657	    0.7872
H	   -3.0000	   -1.3177	    1.6888
C	    3.5485	   -1.1423	    0.5738
H	    3.5297	   -2.1966	    0.8886
C	    3.4420	   -0.0010	    1.4519
C	    3.5495	    1.1412	    0.5750
H	    3.5319	    2.1951	    0.8908
C	    3.5757	    0.7170	   -0.8178
H	    3.5157	    1.3596	   -1.7062
C	    3.5751	   -0.7168	   -0.8185
H	    3.5144	   -1.3584	   -1.7076
