36
LEBNOX charge=+1
Zn	    0.0937	   -0.0515	   -0.3287
Br	   -0.4354	    0.2980	    1.9660
O	   -1.0463	    1.6923	   -1.0633
O	    1.2748	   -1.8652	   -0.4439
N	   -1.6416	   -0.9124	   -0.7607
N	   -3.2118	    2.3831	   -1.0968
H	   -2.9289	    3.3650	   -1.1333
H	   -4.2063	    2.1608	   -1.0585
N	    1.8551	    0.7301	   -0.7220
N	    3.4309	   -2.5728	   -0.5083
H	    3.1459	   -3.5423	   -0.3511
H	    4.4250	   -2.3631	   -0.5987
C	   -2.1423	   -2.1408	   -0.1878
H	   -1.9046	   -2.9860	   -0.8804
H	   -1.5594	   -2.3739	    0.7322
C	   -3.6523	   -1.9520	    0.0756
H	   -3.9781	   -2.4082	    1.0291
H	   -4.2467	   -2.4186	   -0.7362
C	   -3.8252	   -0.4234	    0.0529
H	   -3.5603	    0.0275	    1.0315
H	   -4.8489	   -0.1064	   -0.2259
C	   -2.7476	   -0.0212	   -0.9793
H	   -3.1507	   -0.2369	   -2.0096
C	   -2.2625	    1.4338	   -1.0386
C	    2.4914	   -1.6149	   -0.5592
C	    2.9727	   -0.1766	   -0.7869
H	    3.3878	   -0.1496	   -1.8328
C	    4.0453	    0.3914	    0.1755
H	    5.0754	    0.0716	   -0.0742
H	    3.8181	    0.0668	    1.2124
C	    3.8155	    1.9014	    0.0074
H	    4.1901	    2.4995	    0.8593
H	    4.3219	    2.2676	   -0.9097
C	    2.2894	    1.9822	   -0.1586
H	    1.9132	    2.8372	   -0.7690
H	    1.7715	    2.1124	    0.8308
