36
LEBNIR charge=+1
Zn	   -0.0449	    0.0219	   -0.1777
Cl	    0.4300	   -0.3579	    1.9847
O	    1.1160	   -1.6636	   -0.9517
O	   -1.2328	    1.7932	   -0.4208
N	    1.7112	    0.9154	   -0.5039
N	    3.2696	   -2.3821	   -0.8607
H	    2.9788	   -3.3569	   -0.9652
H	    4.2622	   -2.1760	   -0.7494
N	   -1.8133	   -0.8089	   -0.5017
N	   -3.3774	    2.5036	   -0.6301
H	   -3.0854	    3.4825	   -0.5812
H	   -4.3703	    2.2936	   -0.7333
C	    2.1673	    2.1024	    0.1810
H	    1.9804	    2.9929	   -0.4688
H	    1.5153	    2.2721	    1.0686
C	    3.6496	    1.8880	    0.5532
H	    3.9047	    2.3051	    1.5454
H	    4.3098	    2.3758	   -0.1930
C	    3.8046	    0.3594	    0.4857
H	    4.8454	    0.0338	    0.2943
H	    3.4341	   -0.1230	    1.4134
C	    2.8247	    0.0202	   -0.6613
H	    3.3259	    0.2789	   -1.6371
C	    2.3303	   -1.4224	   -0.8271
C	   -2.4498	    1.5380	   -0.5419
C	   -2.9383	    0.0878	   -0.5948
H	   -3.4249	   -0.0592	   -1.5982
C	   -3.9397	   -0.3622	    0.5007
H	   -3.6380	    0.0757	    1.4751
H	   -4.9849	   -0.0643	    0.2906
C	   -3.7159	   -1.8821	    0.4894
H	   -4.0284	   -2.3784	    1.4273
H	   -4.2813	   -2.3489	   -0.3439
C	   -2.2048	   -1.9823	    0.2314
H	   -1.8576	   -2.9066	   -0.2890
H	   -1.6163	   -1.9849	    1.1935
