61
LEHVIE charge=+1
C	   -0.2283	   -2.5882	    2.4656
H	   -0.2692	   -2.2585	    3.5245
H	    0.7891	   -2.9780	    2.2688
H	   -0.9472	   -3.4168	    2.3712
C	    0.2267	   -2.5875	   -2.4662
H	   -0.7912	   -2.9762	   -2.2699
H	    0.9447	   -3.4168	   -2.3713
H	    0.2687	   -2.2578	   -3.5251
Co	    0.0001	    0.9600	    0.0002
O	   -1.8348	    0.9742	    0.5119
N	    0.2946	   -0.4633	    1.3519
O	    1.8350	    0.9737	   -0.5118
N	    0.4534	    2.3629	    1.1911
N	   -0.2950	   -0.4625	   -1.3522
C	   -1.9083	   -1.4128	    0.9580
N	   -0.4524	    2.3638	   -1.1897
C	   -0.5711	   -1.4418	    1.5388
C	    2.5078	   -0.1364	   -0.6381
C	   -4.6925	   -1.2306	    0.4158
H	   -5.7748	   -1.1591	    0.2287
C	   -2.5081	   -0.1357	    0.6378
C	    0.5702	   -1.4414	   -1.5391
C	    1.9073	   -1.4132	   -0.9584
C	    1.4310	    2.2169	    2.2315
H	    1.3996	    3.1232	    2.8806
H	    2.4516	    2.2238	    1.7627
C	   -0.4377	    3.6757	   -0.6125
H	   -0.0721	    4.4214	   -1.3608
H	   -1.4774	    4.0071	   -0.3586
C	    4.6918	   -1.2324	   -0.4167
H	    5.7741	   -1.1614	   -0.2298
C	   -3.9227	   -0.0755	    0.4392
H	   -4.3626	    0.9163	    0.2608
C	    1.2824	    0.9667	    3.0821
H	    0.3032	    0.9693	    3.6047
H	    2.0715	    0.9781	    3.8606
C	   -1.4307	   -0.3110	   -2.2589
H	   -2.3729	   -0.2746	   -1.6782
H	   -1.5140	   -1.1763	   -2.9383
C	    1.4306	   -0.3130	    2.2584
H	    2.3727	   -0.2768	    1.6775
H	    1.5137	   -1.1788	    2.9372
C	    3.9225	   -0.0769	   -0.4398
H	    4.3629	    0.9147	   -0.2614
C	   -2.7310	   -2.5726	    0.8905
H	   -2.2850	   -3.5626	    1.0600
C	    2.7295	   -2.5734	   -0.8911
H	    2.2830	   -3.5632	   -1.0607
C	   -4.0892	   -2.4981	    0.6004
H	   -4.6914	   -3.4151	    0.5359
C	    0.4405	    3.6750	    0.6141
H	    0.0760	    4.4211	    1.3625
H	    1.4807	    4.0049	    0.3600
C	    4.0878	   -2.4995	   -0.6013
H	    4.6896	   -3.4169	   -0.5370
C	   -1.4295	    2.2190	   -2.2306
H	   -1.3971	    3.1255	   -2.8794
H	   -2.4504	    2.2265	   -1.7625
C	   -1.2814	    0.9691	   -3.0818
H	   -2.0702	    0.9814	   -3.8606
H	   -0.3020	    0.9714	   -3.6041
