49
LEHVEA charge=+1
Co	    0.0000	    0.7912	    0.0000
N	    1.2761	    0.7699	   -1.4441
N	   -0.8158	    2.1749	   -0.9858
N	    0.8163	    2.1745	    0.9860
N	   -1.2760	    0.7701	    1.4441
O	    0.8803	   -0.5418	    1.0332
O	   -0.8806	   -0.5414	   -1.0333
C	    0.9546	    1.6810	   -2.5388
H	    1.1930	    1.2312	   -3.5253
H	    1.5500	    2.6137	   -2.4401
C	   -0.5460	    2.0111	   -2.3905
H	   -0.8246	    2.9143	   -2.9723
H	   -1.1344	    1.1436	   -2.7576
C	   -0.7093	    3.4483	   -0.3844
H	   -1.4755	    3.5972	    0.4045
H	   -0.7744	    4.2857	   -1.1124
C	    0.7105	    3.4479	    0.3846
H	    1.4767	    3.5965	   -0.4043
H	    0.7760	    4.2853	    1.1126
C	    0.5464	    2.0107	    2.3906
H	    1.1345	    1.1430	    2.7577
H	    0.8253	    2.9138	    2.9725
C	   -0.9543	    1.6812	    2.5388
H	   -1.1929	    1.2314	    3.5253
H	   -1.5494	    2.6140	    2.4400
C	    1.9320	   -1.2241	    0.6828
C	    2.6268	   -1.0737	   -0.5776
C	    3.7421	   -1.9081	   -0.8636
H	    4.2578	   -1.7846	   -1.8288
C	    4.1878	   -2.8585	    0.0474
H	    5.0529	   -3.4934	   -0.1895
C	    3.5184	   -2.9964	    1.2899
H	    3.8679	   -3.7458	    2.0162
C	    2.4257	   -2.2003	    1.6051
H	    1.8948	   -2.3032	    2.5621
C	    2.2378	   -0.1021	   -1.5548
H	    2.8262	   -0.0936	   -2.4947
C	   -1.9323	   -1.2236	   -0.6829
C	   -2.6270	   -1.0733	    0.5775
C	   -3.7424	   -1.9075	    0.8636
H	   -4.2580	   -1.7840	    1.8288
C	   -4.1883	   -2.8577	   -0.0475
H	   -5.0535	   -3.4926	    0.1895
C	   -3.5190	   -2.9957	   -1.2900
H	   -3.8686	   -3.7450	   -2.0164
C	   -2.4262	   -2.1997	   -1.6052
H	   -1.8955	   -2.3026	   -2.5623
C	   -2.2378	   -0.1018	    1.5548
H	   -2.8263	   -0.0932	    2.4947
