72
LEPDIT charge=0
W	    0.5073	    0.0001	    1.0168
S	    0.0841	   -1.8658	   -0.8328
C	    1.4339	   -3.1154	   -0.5527
C	    2.7950	   -2.7341	   -1.1830
C	    3.4205	   -1.4660	   -0.5506
C	    2.6644	   -2.5760	   -2.7085
C	    3.7648	   -3.8928	   -0.8605
S	    2.3392	    0.0000	   -0.7978
C	    3.4205	    1.4661	   -0.5512
C	    2.7946	    2.7343	   -1.1832
C	    1.4338	    3.1154	   -0.5523
C	    2.6634	    2.5763	   -2.7087
C	    3.7644	    3.8930	   -0.8611
S	    0.0839	    1.8658	   -0.8325
C	   -1.4215	    2.8610	   -0.4328
C	   -2.5285	    2.7697	   -1.5088
C	   -3.2026	    1.3811	   -1.5049
C	   -1.9905	    3.1306	   -2.9030
C	   -3.6079	    3.7911	   -1.0852
S	   -2.0889	    0.0000	   -1.9838
C	   -3.2025	   -1.3812	   -1.5050
C	   -2.5282	   -2.7697	   -1.5091
C	   -1.4213	   -2.8610	   -0.4332
C	   -1.9904	   -3.1305	   -2.9034
C	   -3.6076	   -3.7913	   -1.0855
I	   -2.1785	   -0.0005	    1.9950
C	    0.4130	   -1.5993	    2.2181
O	    0.3735	   -2.5591	    2.8723
C	    2.1971	    0.0010	    2.0116
O	    3.2034	    0.0011	    2.6101
C	    0.4117	    1.5992	    2.2183
O	    0.3714	    2.5590	    2.8726
H	    1.0713	   -4.0437	   -1.0384
H	    1.5286	   -3.3054	    0.5346
H	    3.6199	   -1.5923	    0.5315
H	    4.3756	   -1.2303	   -1.0630
H	    1.9788	   -1.7512	   -2.9850
H	    2.2715	   -3.5086	   -3.1603
H	    3.6533	   -2.3720	   -3.1657
H	    4.7677	   -3.6936	   -1.2882
H	    3.3957	   -4.8405	   -1.3004
H	    3.8786	   -4.0416	    0.2322
H	    4.3753	    1.2305	   -1.0641
H	    3.6205	    1.5925	    0.5308
H	    1.5289	    3.3050	    0.5349
H	    1.0711	    4.0439	   -1.0376
H	    1.9780	    1.7512	   -2.9850
H	    3.6522	    2.3726	   -3.1663
H	    2.2701	    3.5087	   -3.1603
H	    4.7672	    3.6938	   -1.2890
H	    3.8786	    4.0418	    0.2316
H	    3.3952	    4.8407	   -1.3009
H	   -1.0692	    3.9069	   -0.3367
H	   -1.7975	    2.5229	    0.5531
H	   -3.5869	    1.1555	   -0.4878
H	   -4.0612	    1.3864	   -2.2084
H	   -1.2263	    2.4073	   -3.2508
H	   -1.5361	    4.1429	   -2.9013
H	   -2.8130	    3.1329	   -3.6455
H	   -4.4624	    3.7655	   -1.7902
H	   -3.1995	    4.8217	   -1.0891
H	   -3.9961	    3.5771	   -0.0689
H	   -4.0611	   -1.3864	   -2.2085
H	   -3.5869	   -1.1557	   -0.4879
H	   -1.7972	   -2.5231	    0.5528
H	   -1.0689	   -3.9069	   -0.3372
H	   -1.2262	   -2.4071	   -3.2511
H	   -2.8129	   -3.1328	   -3.6458
H	   -1.5359	   -4.1427	   -2.9018
H	   -4.4621	   -3.7656	   -1.7904
H	   -3.9957	   -3.5774	   -0.0691
H	   -3.1991	   -4.8219	   -1.0895
