42
LIBZOM charge=0
Ti	   -0.4195	    0.0210	    1.1019
Cl	   -1.7028	   -1.6294	    1.8767
Cl	   -1.3221	    1.9342	    1.7942
Cl	    1.4505	   -0.2088	    2.2690
C	    0.7829	    0.6946	   -0.8278
C	    0.8014	   -0.7344	   -0.8191
C	   -0.5977	   -1.0402	   -0.9633
C	   -1.5964	   -0.0562	   -0.9961
C	   -0.6275	    0.9523	   -0.9808
C	    1.7731	    1.7721	   -0.7067
C	    1.3962	    3.0748	   -1.1027
H	    0.3876	    3.2334	   -1.5169
C	    2.2892	    4.1449	   -0.9767
H	    1.9823	    5.1543	   -1.2894
C	    3.5771	    3.9263	   -0.4607
H	    4.2833	    4.7651	   -0.3660
C	    3.9594	    2.6346	   -0.0610
H	    4.9618	    2.4620	    0.3589
C	    3.0664	    1.5627	   -0.1779
H	    3.3555	    0.5649	    0.1779
C	    1.8475	   -1.7687	   -0.7769
C	    3.0859	   -1.5850	   -1.4262
H	    3.2858	   -0.6464	   -1.9633
C	    4.0480	   -2.6050	   -1.4093
H	    5.0094	   -2.4555	   -1.9237
C	    3.7848	   -3.8143	   -0.7467
H	    4.5438	   -4.6110	   -0.7305
C	    2.5495	   -4.0050	   -0.1043
H	    2.3402	   -4.9486	    0.4216
C	    1.5853	   -2.9906	   -0.1198
H	    0.6245	   -3.1229	    0.4026
C	   -3.0512	   -0.0714	   -1.0289
C	   -3.7446	   -1.2985	   -1.0853
H	   -3.1695	   -2.2361	   -1.1009
C	   -5.1433	   -1.3068	   -1.1078
H	   -5.6838	   -2.2641	   -1.1524
C	   -5.8569	   -0.0963	   -1.0680
H	   -6.9573	   -0.1063	   -1.0819
C	   -5.1669	    1.1265	   -1.0029
H	   -5.7254	    2.0736	   -0.9628
C	   -3.7680	    1.1427	   -0.9821
H	   -3.2112	    2.0888	   -0.9094
