57
MELZIN charge=+1
Co	    0.0396	    0.0130	   -0.0441
N	   -1.2389	   -1.3122	   -0.6863
N	    1.3254	   -1.2695	   -0.3670
N	    1.3106	    1.3184	    0.6253
N	   -1.2545	    1.2277	    0.4305
N	    0.2410	    0.6888	   -1.9059
N	    0.2232	    1.9014	   -2.0274
N	    0.2208	    3.0544	   -2.1951
N	   -0.0871	   -0.6921	    1.8886
N	   -0.5738	   -1.7964	    2.0224
N	   -1.0488	   -2.8537	    2.1707
C	   -2.4837	   -1.4297	   -0.3525
C	   -3.1260	   -0.3495	    0.4709
H	   -2.9282	   -0.5744	    1.5427
H	   -4.2239	   -0.4186	    0.3446
C	   -2.6910	    1.0993	    0.1608
C	   -0.7647	    2.4573	    1.0130
H	   -1.4260	    2.8313	    1.8203
H	   -0.7457	    3.2551	    0.2274
C	    0.6294	    2.2078	    1.5584
H	    1.1742	    3.1554	    1.7268
H	    0.5530	    1.6608	    2.5216
C	    2.5598	    1.4090	    0.3013
C	    3.1460	    0.3374	   -0.5712
H	    4.2482	    0.4316	   -0.5713
H	    2.7972	    0.5080	   -1.6138
C	    2.7663	   -1.1080	   -0.1629
C	    0.8013	   -2.5443	   -0.7965
H	    0.6310	   -3.2099	    0.0898
H	    1.4990	   -3.0847	   -1.4656
C	   -0.5144	   -2.2743	   -1.5090
H	   -0.3104	   -1.7794	   -2.4815
H	   -1.0813	   -3.2056	   -1.6900
C	   -3.3717	   -2.5810	   -0.7173
H	   -4.1005	   -2.2505	   -1.4884
H	   -3.9625	   -2.8709	    0.1749
H	   -2.8431	   -3.4725	   -1.0928
C	   -3.5536	    2.0280	    1.0379
H	   -3.3844	    1.8468	    2.1182
H	   -4.6222	    1.8317	    0.8281
H	   -3.3719	    3.0962	    0.8150
C	   -2.9442	    1.4356	   -1.3336
H	   -2.6280	    2.4734	   -1.5545
H	   -4.0270	    1.3496	   -1.5529
H	   -2.3788	    0.7585	   -1.9998
C	    3.4901	    2.4892	    0.7621
H	    2.9927	    3.3728	    1.1963
H	    4.1227	    2.8141	   -0.0882
H	    4.1814	    2.0670	    1.5238
C	    3.6032	   -2.0585	   -1.0450
H	    3.4694	   -3.1185	   -0.7579
H	    4.6760	   -1.8223	   -0.9112
H	    3.3609	   -1.9369	   -2.1195
C	    3.1001	   -1.3777	    1.3284
H	    2.5028	   -0.7291	    1.9948
H	    4.1818	   -1.2126	    1.5061
H	    2.8679	   -2.4294	    1.5859
