66
MEYJOP charge=+1
Cu	    0.4117	   -0.0249	    0.0390
Cl	    0.6571	    0.2244	   -2.2045
N	    0.1490	   -0.5109	    2.1984
N	    2.1987	    0.3436	    0.5580
N	   -0.9722	   -1.3713	   -0.1493
N	   -1.0918	    1.2681	    0.4375
C	    1.5429	   -0.6432	    2.6608
H	    1.6046	   -0.5760	    3.7704
H	    1.9016	   -1.6483	    2.3621
C	    2.4186	    0.4065	    1.9800
H	    2.1893	    1.4340	    2.3658
H	    3.4901	    0.2351	    2.2323
C	    3.2430	    0.9163	   -0.2658
H	    3.6916	    1.8206	    0.2033
H	    2.8092	    1.1835	   -1.2490
C	    4.2952	   -0.1756	   -0.4286
C	    5.5095	   -0.1308	    0.2825
H	    5.7392	    0.7338	    0.9258
C	    6.4492	   -1.1629	    0.1355
H	    7.4091	   -1.1094	    0.6708
C	    6.1706	   -2.2542	   -0.7051
H	    6.9079	   -3.0634	   -0.8165
C	    4.9536	   -2.3089	   -1.4055
H	    4.7389	   -3.1584	   -2.0712
C	    4.0125	   -1.2807	   -1.2620
H	    3.0561	   -1.3089	   -1.8078
C	   -0.6382	   -1.7525	    2.2060
H	   -1.6848	   -1.5231	    2.4790
H	   -0.2430	   -2.4650	    2.9590
C	   -0.6252	   -2.3927	    0.7980
H	    0.4017	   -2.7932	    0.6039
H	   -1.3252	   -3.2569	    0.7576
C	   -1.7538	   -1.7242	   -1.3095
H	   -1.1653	   -2.3734	   -2.0025
H	   -1.9588	   -0.8003	   -1.8880
C	   -3.0391	   -2.4213	   -0.9034
C	   -3.9665	   -1.7514	   -0.0758
H	   -3.7597	   -0.7157	    0.2365
C	   -5.1515	   -2.3824	    0.3261
H	   -5.8729	   -1.8464	    0.9611
C	   -5.4228	   -3.6958	   -0.0926
H	   -6.3541	   -4.1922	    0.2179
C	   -4.5054	   -4.3710	   -0.9135
H	   -4.7172	   -5.3973	   -1.2488
C	   -3.3160	   -3.7395	   -1.3109
H	   -2.5986	   -4.2723	   -1.9546
C	   -0.5653	    0.6735	    2.7203
H	    0.1691	    1.4967	    2.8173
H	   -0.9754	    0.4713	    3.7346
C	   -1.6609	    1.1021	    1.7505
H	   -2.5331	    0.4056	    1.7645
H	   -2.0735	    2.0863	    2.0791
C	   -1.9924	    1.6973	   -0.6028
H	   -3.0553	    1.4176	   -0.4314
H	   -1.6408	    1.2918	   -1.5733
C	   -1.8025	    3.2110	   -0.5853
C	   -0.6547	    3.7694	   -1.1932
H	    0.0667	    3.1013	   -1.6898
C	   -0.4617	    5.1556	   -1.1749
H	    0.4197	    5.5927	   -1.6672
C	   -1.3936	    5.9879	   -0.5298
H	   -1.2378	    7.0769	   -0.5110
C	   -2.5255	    5.4323	    0.0940
H	   -3.2622	    6.0863	    0.5840
C	   -2.7226	    4.0446	    0.0820
H	   -3.6179	    3.6112	    0.5559
