25
NOTTOF charge=0
Pt	    0.0436	    0.1443	    0.2016
Cl	    0.5541	    2.2725	    1.0616
Cl	    0.3010	   -0.8145	    2.3440
Cl	   -0.3309	    1.1194	   -1.9304
Cl	   -0.5963	   -1.9830	   -0.6622
N	    2.0127	   -0.2062	   -0.2660
N	   -1.9295	    0.5107	    0.7160
N	   -6.3619	   -0.6699	   -1.0976
C	    2.7310	    0.7544	   -0.8923
C	    4.0726	    0.5455	   -1.2215
C	    4.6762	   -0.6769	   -0.8969
C	    3.9141	   -1.6576	   -0.2470
C	    2.5774	   -1.3922	    0.0593
C	   -2.9530	    0.0274	   -0.2583
C	   -4.2732	   -0.0841	    0.2690
C	   -5.3413	   -0.4081	   -0.5374
H	    2.1971	    1.6869	   -1.1205
H	    4.6287	    1.3457	   -1.7291
H	    5.7312	   -0.8636	   -1.1471
H	    4.3424	   -2.6309	    0.0295
H	    1.9296	   -2.1121	    0.5777
H	   -1.9998	    1.5334	    0.8642
H	   -2.0825	    0.0686	    1.6421
H	   -2.6182	   -1.0320	   -0.5435
H	   -2.7796	    0.5523	   -1.2313
