77
NOWBIK charge=0
Fe	    0.0000	   -2.1422	    0.0000
S	    1.8211	   -4.2688	   -3.6897
N	   -0.3876	   -0.5256	    1.2323
N	    1.6524	   -2.0664	    1.0278
N	    0.7688	   -3.1923	   -1.3157
C	   -7.6982	    3.3002	    0.1189
C	    0.5888	   -0.1373	    1.9746
C	    1.2027	   -3.6327	   -2.3501
C	    1.7677	   -0.9890	    1.8765
C	    2.6575	   -2.9615	    0.9600
C	    3.8466	   -2.7986	    1.6812
C	   -8.9164	    2.5860	    0.2671
C	  -10.1422	    3.2242	    0.0498
C	    4.0031	   -1.6760	    2.5090
C	    2.9422	   -0.7693	    2.6147
C	  -10.1819	    4.5798	   -0.3179
C	   -8.9830	    5.2974	   -0.4676
C	   -1.6746	    1.5215	    0.8296
C	   -1.6332	    0.1413	    1.1152
C	   -4.1180	    1.4519	    0.7464
C	   -4.0628	    0.0722	    1.0819
C	   -7.7514	    4.6695	   -0.2528
C	   -2.8401	   -0.5732	    1.2591
C	   -5.3650	    2.0987	    0.5303
C	   -2.8964	    2.1673	    0.6397
C	   -6.4481	    2.6560	    0.3388
H	   -8.8808	    1.5258	    0.5567
H	  -11.0786	    2.6584	    0.1693
H	  -11.1483	    5.0779	   -0.4875
H	   -9.0091	    6.3595	   -0.7549
H	   -6.8109	    5.2274	   -0.3682
H	   -5.0012	   -0.4880	    1.1996
H	   -2.8055	   -1.6370	    1.5241
H	   -0.7266	    2.0729	    0.7702
H	   -2.9227	    3.2403	    0.4020
H	    2.4990	   -3.8114	    0.2810
H	    4.6409	   -3.5521	    1.5828
H	    4.9340	   -1.5188	    3.0734
H	    2.9870	    0.1160	    3.2633
N	    0.3876	   -0.5256	   -1.2323
C	   -0.5887	   -0.1374	   -1.9746
C	   -1.7677	   -0.9891	   -1.8765
N	   -1.6523	   -2.0665	   -1.0277
N	   -0.7687	   -3.1923	    1.3157
C	   -1.2028	   -3.6327	    2.3501
S	   -1.8212	   -4.2687	    3.6897
C	   -2.6574	   -2.9616	   -0.9600
C	   -3.8465	   -2.7987	   -1.6812
C	   -4.0031	   -1.6761	   -2.5090
C	   -2.9422	   -0.7693	   -2.6147
H	   -2.9870	    0.1159	   -3.2633
H	   -4.9340	   -1.5189	   -3.0734
H	   -4.6408	   -3.5522	   -1.5828
H	   -2.4989	   -3.8114	   -0.2810
C	    1.6332	    0.1413	   -1.1152
C	    1.6745	    1.5215	   -0.8296
C	    2.8964	    2.1674	   -0.6397
C	    4.1180	    1.4519	   -0.7464
C	    4.0628	    0.0722	   -1.0818
C	    2.8401	   -0.5731	   -1.2591
H	    2.8056	   -1.6370	   -1.5240
H	    5.0012	   -0.4879	   -1.1995
C	    5.3650	    2.0988	   -0.5303
C	    6.4481	    2.6561	   -0.3387
C	    7.6982	    3.3002	   -0.1188
C	    8.9163	    2.5859	   -0.2672
C	   10.1422	    3.2240	   -0.0499
C	   10.1820	    4.5796	    0.3178
C	    8.9832	    5.2973	    0.4675
C	    7.7515	    4.6695	    0.2527
H	    6.8111	    5.2275	    0.3682
H	    9.0094	    6.3594	    0.7547
H	   11.1485	    5.0777	    0.4873
H	   11.0786	    2.6581	   -0.1694
H	    8.8807	    1.5257	   -0.5567
H	    2.9226	    3.2403	   -0.4020
H	    0.7265	    2.0729	   -0.7702
