73
PEGLEZ charge=0
Mo	   -2.0620	    0.3508	   -1.1869
Cl	   -2.6913	    2.2736	   -2.3249
O	   -0.1517	    1.2180	   -0.5156
C	   -0.1708	    0.4449	    0.5475
C	   -1.5746	    0.1242	    0.9497
C	    0.9660	   -0.1122	    1.1143
N	   -1.0167	   -0.8797	   -2.1197
C	   -0.1752	   -1.7167	   -2.5158
C	    1.4898	   -3.3707	   -3.2202
C	    0.7730	   -2.7651	   -2.1342
C	    0.5747	   -2.3302	   -3.5947
N	   -3.5274	   -0.6662	   -1.0927
C	   -4.4517	   -1.5643	   -0.8507
C	   -4.4629	   -2.7991	    0.0007
C	   -5.9350	   -1.5668	   -0.8789
C	   -5.4927	   -1.9524	    0.4412
P	    2.5510	    0.1894	    0.4326
C	    3.0468	    1.9389	    0.5994
C	    2.4115	    2.7333	    1.5728
C	    2.7990	    4.0705	    1.7393
C	    3.8184	    4.6128	    0.9397
C	    4.4516	    3.8197	   -0.0313
C	    4.0670	    2.4825	   -0.2075
C	    2.8219	   -0.2195	   -1.3330
C	    3.6972	   -1.2657	   -1.6963
C	    3.9432	   -1.5318	   -3.0520
C	    3.3168	   -0.7631	   -4.0446
C	    2.4404	    0.2743	   -3.6828
C	    2.1965	    0.5598	   -2.3317
C	    3.7081	   -0.8336	    1.3965
C	    3.3599	   -2.1777	    1.6543
C	    4.2460	   -2.9992	    2.3648
C	    5.4729	   -2.4871	    2.8186
C	    5.8170	   -1.1507	    2.5620
C	    4.9384	   -0.3205	    1.8497
C	   -2.4698	    1.3150	    1.1874
C	   -3.8653	    1.0989	    1.3797
C	   -4.7445	    2.1747	    1.5391
C	   -4.2608	    3.4924	    1.5210
C	   -2.8857	    3.7260	    1.3548
C	   -2.0003	    2.6573	    1.1900
C	   -1.8040	   -1.1156	    1.7552
C	   -2.2161	   -1.0351	    3.1036
C	   -2.3684	   -2.1949	    3.8764
C	   -2.1113	   -3.4564	    3.3165
C	   -1.6994	   -3.5494	    1.9782
C	   -1.5463	   -2.3904	    1.2055
H	    0.8984	   -0.7574	    1.9994
H	    1.6056	    2.2969	    2.1834
H	    2.2972	    4.6945	    2.4939
H	    4.1169	    5.6641	    1.0688
H	    5.2444	    4.2475	   -0.6630
H	    4.5495	    1.8651	   -0.9804
H	    4.1876	   -1.8750	   -0.9241
H	    4.6133	   -2.3569	   -3.3307
H	    3.4971	   -0.9861	   -5.1064
H	    1.9370	    0.8692	   -4.4593
H	    1.5057	    1.3636	   -2.0416
H	    2.4001	   -2.5806	    1.2949
H	    3.9744	   -4.0463	    2.5648
H	    6.1645	   -3.1348	    3.3781
H	    6.7755	   -0.7478	    2.9216
H	    5.2050	    0.7286	    1.6534
H	   -4.2601	    0.0712	    1.4092
H	   -5.8182	    1.9756	    1.6706
H	   -4.9558	    4.3383	    1.6328
H	   -2.4990	    4.7559	    1.3395
H	   -0.9339	    2.8572	    1.0193
H	   -2.4200	   -0.0492	    3.5480
H	   -2.6958	   -2.1119	    4.9241
H	   -2.2457	   -4.3673	    3.9191
H	   -1.2357	   -2.4709	    0.1535
H	   -1.5197	   -4.5327	    1.5194
