37
RACWUO charge=0
Cd	    0.6677	    0.5113	   -0.1799
S	    3.2016	   -0.9793	    0.3048
O	    2.1587	   -0.2086	    1.2552
O	    3.8310	    0.1465	   -0.5699
O	    2.3506	   -1.8564	   -0.6245
O	    4.1789	   -1.7016	    1.1296
O	    3.4768	    2.2041	    1.0827
H	    3.8657	    1.5697	    0.3988
O	    1.7732	    0.2037	   -2.1930
H	    2.6851	    0.3990	   -1.7782
O	    1.3651	    2.7526	   -0.1927
H	    2.2673	    2.6352	    0.3626
H	    1.6728	    2.9588	   -1.0961
C	   -0.5032	   -2.5733	   -0.1003
H	    0.5890	   -2.7512	   -0.1842
C	   -1.4659	   -3.6073	   -0.0012
H	   -1.1335	   -4.6550	   -0.0032
C	   -2.8130	   -3.2783	    0.0934
H	   -3.5835	   -4.0617	    0.1648
C	   -3.2068	   -1.9129	    0.1052
C	   -4.5745	   -1.4815	    0.2109
H	   -5.3622	   -2.2474	    0.2762
C	   -4.8984	   -0.1456	    0.2338
H	   -5.9481	    0.1740	    0.3166
C	   -3.8780	    0.8650	    0.1601
C	   -4.1529	    2.2577	    0.2017
H	   -5.1964	    2.5985	    0.2858
C	   -3.1070	    3.1722	    0.1427
H	   -3.2925	    4.2550	    0.1789
C	   -1.7812	    2.6923	    0.0399
H	   -0.9047	    3.3615	    0.0018
C	   -2.5076	    0.4742	    0.0485
C	   -2.1675	   -0.9383	    0.0109
N	   -0.8637	   -1.2876	   -0.1020
N	   -1.5052	    1.3875	   -0.0081
H	    3.0665	    1.5043	    1.6527
H	    1.8397	   -0.7806	   -2.0196
