56
REBJIR charge=+1
Ni	    0.0151	    0.2261	    0.1366
N	   -0.3977	    1.9456	   -0.5830
N	    1.8406	    0.6875	   -0.4007
N	    0.4977	   -1.3679	    1.0695
N	   -0.0273	   -0.8338	   -1.4966
N	   -1.9050	    0.1437	    0.2564
N	   -0.2135	    0.8622	    3.0101
O	    0.5669	    0.9391	    3.9510
O	   -1.3865	    0.5076	    3.0698
O	    0.3142	    1.2397	    1.8229
C	   -1.6045	    2.4511	   -0.2700
C	   -1.8931	    3.7756	   -0.6207
H	   -2.8697	    4.2184	   -0.3795
C	   -0.8985	    4.5208	   -1.2791
H	   -1.1046	    5.5611	   -1.5716
C	    0.3630	    3.9625	   -1.5487
H	    1.1532	    4.5530	   -2.0334
C	    0.5975	    2.6359	   -1.1610
C	    1.8708	    1.8439	   -1.2989
H	    1.9946	    1.5359	   -2.3644
H	    2.7458	    2.4874	   -1.0569
C	    2.8979	   -0.1522	   -0.3509
C	    4.0146	   -0.0535	   -1.2511
H	    4.0291	    0.7267	   -2.0227
C	    5.0704	   -0.9530	   -1.1772
H	    5.9147	   -0.8558	   -1.8758
C	    5.0599	   -1.9993	   -0.2272
H	    5.9063	   -2.6987	   -0.1662
C	    3.9770	   -2.1273	    0.6534
H	    3.9766	   -2.9295	    1.4071
C	    2.9209	   -1.2054	    0.6479
C	    1.8216	   -1.2530	    1.6762
H	    1.9739	   -2.1284	    2.3455
H	    1.8468	   -0.3437	    2.3086
C	    0.2582	   -2.5091	    0.2476
H	   -0.8229	   -2.7776	    0.2790
H	    0.8622	   -3.3877	    0.5641
C	    0.5649	   -2.1100	   -1.2347
H	    1.6774	   -2.0400	   -1.3023
H	    0.2081	   -2.8834	   -1.9493
C	   -1.3009	   -0.8847	   -2.2009
H	   -1.1544	   -1.4334	   -3.1577
H	   -1.6125	    0.1508	   -2.4478
C	   -2.3695	   -1.5643	   -1.3708
C	   -3.0991	   -2.6921	   -1.7683
H	   -2.8514	   -3.1978	   -2.7145
C	   -4.1915	   -3.1296	   -1.0025
H	   -4.7828	   -3.9948	   -1.3365
C	   -4.5514	   -2.4444	    0.1780
H	   -5.4035	   -2.7988	    0.7771
C	   -3.8169	   -1.3415	    0.6136
H	   -4.0494	   -0.8391	    1.5635
C	   -2.6833	   -0.9080	   -0.1314
C	   -2.4554	    1.4639	    0.5039
H	   -2.3696	    1.7139	    1.5902
H	   -3.5263	    1.5197	    0.2179
