83
REWMAH charge=0
Pt	   -0.5215	   -0.0014	   -0.8160
Si	    0.5238	    1.0958	    1.1274
Si	    1.8635	   -1.9089	    1.6267
Si	   -2.0355	    1.7707	   -1.5985
Si	    1.7286	   -3.0148	   -0.4778
S	    2.4755	    0.5409	    3.2647
S	    3.4893	    0.1624	    0.3530
N	    1.8532	    1.2657	   -2.4209
N	   -2.8931	   -1.2080	    0.8507
C	    0.9506	    0.7284	   -1.8616
C	   -1.9761	   -0.7429	    0.2514
C	    2.0889	    0.0346	    1.5253
C	    0.9540	    2.8701	    0.6631
C	   -0.7632	    1.1321	    2.5063
C	    3.4008	   -2.6157	    2.4833
C	    0.3453	   -2.3504	    2.6732
C	   -1.0753	    3.0664	   -2.5692
C	   -3.2279	    0.8313	   -2.7186
C	    2.9525	   -2.4590	   -1.8065
C	    2.1024	   -4.8255	   -0.0267
C	   -2.9348	    2.5344	   -0.1362
C	   -2.5774	    3.8104	    0.3614
C	   -3.2218	    4.3521	    1.4841
C	   -4.2321	    3.6239	    2.1340
C	   -4.6218	    2.3679	    1.6390
C	   -3.9857	    1.8392	    0.5077
C	   -0.0407	   -2.9888	   -1.1867
C	   -0.3612	   -2.3187	   -2.4015
C	   -1.6691	   -2.3629	   -2.9311
C	   -2.6780	   -3.0670	   -2.2580
C	   -2.3797	   -3.7423	   -1.0614
C	   -1.0786	   -3.7004	   -0.5381
C	    4.3183	    1.7501	    0.7313
C	    4.7153	    1.9077	    2.1938
C	    3.5154	    2.0471	    3.1259
C	    2.8038	    2.0570	   -2.9300
C	    4.4879	    2.1333	   -2.6930
C	    3.5508	    3.1464	   -2.2778
C	    3.8408	    1.8897	   -3.9538
C	   -4.0388	   -1.6919	    1.3486
C	   -4.5133	   -3.0648	    1.5699
C	   -4.4727	   -2.3850	    2.8386
C	   -4.9947	   -1.1485	    2.3289
H	   -1.7914	    4.3991	   -0.1376
H	   -2.9296	    5.3458	    1.8567
H	   -4.7222	    4.0397	    3.0276
H	   -5.4048	    1.7745	    2.1356
H	   -4.3178	    0.8581	    0.1388
H	    0.4372	   -1.8380	   -2.9887
H	   -1.8855	   -1.8615	   -3.8865
H	   -3.6995	   -3.0980	   -2.6661
H	   -3.1752	   -4.2743	   -0.5163
H	   -0.8715	   -4.2312	    0.4046
H	    3.8359	    2.2058	    4.1756
H	    2.8897	    2.9184	    2.8393
H	    5.3341	    2.8264	    2.2915
H	    5.3427	    1.0487	    2.5126
H	    3.7039	    2.6032	    0.3768
H	    5.2014	    1.7100	    0.0622
H	   -0.3928	    1.7852	    3.3205
H	   -0.9692	    0.1317	    2.9275
H	   -1.7092	    1.5565	    2.1165
H	    1.4029	    3.3695	    1.5464
H	    0.0175	    3.4123	    0.4331
H	    1.6513	    2.9714	   -0.1902
H	    3.5043	   -2.2058	    3.5071
H	    4.3175	   -2.3653	    1.9150
H	    3.3120	   -3.7187	    2.5523
H	    0.3947	   -1.8605	    3.6671
H	    0.3357	   -3.4468	    2.8436
H	   -0.6119	   -2.0773	    2.1913
H	   -1.7813	    3.8702	   -2.8676
H	   -0.6423	    2.6270	   -3.4888
H	   -0.2498	    3.5276	   -1.9943
H	   -3.9952	    1.5519	   -3.0743
H	   -3.7397	    0.0027	   -2.1928
H	   -2.7019	    0.4161	   -3.5995
H	    2.8799	   -3.1332	   -2.6853
H	    3.9872	   -2.5112	   -1.4133
H	    2.7850	   -1.4177	   -2.1401
H	    1.9539	   -5.4705	   -0.9172
H	    1.4457	   -5.2040	    0.7824
H	    3.1534	   -4.9329	    0.3093
