57
RUSDOY charge=0
Zn	   -0.0000	    0.0000	   -0.0000
N	    1.5161	   -1.0303	    0.8136
N	   -1.5162	   -1.0303	   -0.8136
C	    5.9067	   -0.0000	    0.0000
C	    5.2666	   -0.7846	    0.9694
C	    3.9035	   -1.0240	    1.1727
C	    2.7309	   -0.5517	    0.5106
C	    1.3324	   -2.1981	    1.6419
C	    0.0116	   -2.9621	    1.3023
C	    0.0001	   -3.6685	   -0.0000
C	   -0.0115	   -2.9620	   -1.3023
C	   -1.3324	   -2.1981	   -1.6418
C	   -2.7310	   -0.5517	   -0.5106
C	   -3.9036	   -1.0242	   -1.1725
C	   -5.2666	   -0.7848	   -0.9693
C	   -5.9067	   -0.0000	    0.0000
H	    7.0077	   -0.0000	    0.0000
H	    5.9324	   -1.3078	    1.6767
H	    3.6920	   -1.6950	    2.0179
H	    1.2836	   -1.9098	    2.7197
H	    2.1820	   -2.9097	    1.5358
H	   -0.8043	   -2.1954	    1.3518
H	   -0.1699	   -3.6784	    2.1294
H	    0.0002	   -4.7696	   -0.0001
H	    0.1700	   -3.6783	   -2.1294
H	    0.8043	   -2.1953	   -1.3517
H	   -1.2836	   -1.9098	   -2.7197
H	   -2.1819	   -2.9098	   -1.5358
H	   -3.6921	   -1.6954	   -2.0176
H	   -5.9325	   -1.3081	   -1.6764
H	   -7.0077	   -0.0000	    0.0000
C	    5.2666	    0.7846	   -0.9694
C	    3.9035	    1.0240	   -1.1726
C	    2.7309	    0.5517	   -0.5106
N	    1.5161	    1.0304	   -0.8136
C	   -2.7310	    0.5517	    0.5106
N	   -1.5162	    1.0303	    0.8136
C	   -1.3324	    2.1981	    1.6418
C	   -0.0115	    2.9620	    1.3023
C	    0.0001	    3.6685	    0.0000
C	    0.0116	    2.9621	   -1.3023
C	    1.3324	    2.1981	   -1.6419
H	    1.2836	    1.9098	   -2.7197
H	    2.1820	    2.9097	   -1.5358
H	   -0.8043	    2.1954	   -1.3518
H	   -0.1699	    3.6785	   -2.1294
H	    0.0002	    4.7696	    0.0001
H	    0.1700	    3.6783	    2.1294
H	    0.8043	    2.1953	    1.3517
H	   -1.2836	    1.9098	    2.7197
H	   -2.1819	    2.9098	    1.5358
C	   -3.9036	    1.0242	    1.1725
C	   -5.2666	    0.7848	    0.9693
H	   -5.9325	    1.3081	    1.6764
H	   -3.6921	    1.6954	    2.0176
H	    3.6920	    1.6950	   -2.0179
H	    5.9324	    1.3078	   -1.6767
