72
TETQAL charge=0
Ti	    1.6088	   -0.2171	    1.6273
Cl	    1.9185	   -1.5675	    3.4191
Cl	    3.7943	    0.3737	    1.5538
P	   -1.4470	    0.0991	    0.0486
O	    1.1554	   -1.5687	    0.4847
O	    1.1289	    1.1272	    0.3238
O	   -0.0740	    0.3402	    2.4803
C	    0.5731	   -1.7846	   -0.6953
C	   -0.6213	   -1.0962	   -1.0412
C	   -1.2057	   -1.2655	   -2.3160
C	   -0.6468	   -2.1541	   -3.2405
C	   -1.2468	   -2.3500	   -4.6094
C	    0.5063	   -2.8731	   -2.8521
C	    1.1434	   -2.7249	   -1.6112
C	    2.4148	   -3.5152	   -1.2473
C	    2.7693	   -4.5396	   -2.3418
C	    2.2029	   -4.2944	    0.0740
C	    3.6078	   -2.5385	   -1.1101
C	    0.3722	    2.0686	   -0.2306
C	   -1.0011	    1.7666	   -0.4602
C	   -1.8710	    2.6474	   -1.1274
C	   -1.3919	    3.8934	   -1.5512
C	   -2.2805	    4.8826	   -2.2618
C	   -0.0370	    4.2020	   -1.2922
C	    0.8745	    3.3414	   -0.6567
C	    2.3417	    3.7427	   -0.4333
C	    2.6487	    5.1378	   -1.0078
C	    2.6289	    3.7837	    1.0854
C	    3.2671	    2.7246	   -1.1400
C	   -3.2376	   -0.1981	   -0.0206
C	   -4.1065	    0.7877	    0.5036
C	   -5.4327	    0.4555	    0.7971
C	   -5.8935	   -0.8563	    0.5888
C	   -5.0398	   -1.8268	    0.0385
C	   -3.7131	   -1.5035	   -0.2704
C	   -1.1670	   -0.0767	    1.8894
C	   -2.2374	   -0.6352	    2.4986
C	   -3.3221	   -1.0830	    3.0604
C	   -4.4949	   -1.5082	    3.4552
H	   -2.1102	   -0.6983	   -2.5868
H	   -2.1698	   -1.7534	   -4.7417
H	   -1.5006	   -3.4152	   -4.7901
H	   -0.5340	   -2.0511	   -5.4062
H	    0.9286	   -3.5821	   -3.5774
H	    3.0010	   -4.0562	   -3.3126
H	    1.9567	   -5.2773	   -2.5021
H	    3.6723	   -5.1019	   -2.0326
H	    1.3437	   -4.9904	   -0.0138
H	    2.0251	   -3.6253	    0.9355
H	    3.1068	   -4.8982	    0.2941
H	    3.7722	   -1.9824	   -2.0554
H	    4.5321	   -3.1091	   -0.8850
H	    3.4680	   -1.8031	   -0.2977
H	   -2.9136	    2.3600	   -1.3284
H	   -3.2980	    4.4768	   -2.4225
H	   -1.8656	    5.1605	   -3.2530
H	   -2.3807	    5.8239	   -1.6817
H	    0.3246	    5.1847	   -1.6253
H	    2.0448	    5.9337	   -0.5262
H	    2.4821	    5.1856	   -2.1033
H	    3.7149	    5.3772	   -0.8245
H	    1.9800	    4.5301	    1.5867
H	    3.6860	    4.0682	    1.2636
H	    2.4735	    2.7995	    1.5606
H	    4.3270	    3.0176	   -0.9951
H	    3.0620	    2.7040	   -2.2300
H	    3.1444	    1.7055	   -0.7324
H	   -3.7281	    1.7919	    0.7425
H	   -6.1013	    1.2126	    1.2314
H	   -6.9234	   -1.1252	    0.8650
H	   -5.4016	   -2.8529	   -0.1210
H	   -3.0317	   -2.2754	   -0.6551
