24
VIWKOB charge=+1
Au	   -0.6997	   -0.0167	    0.2279
Cl	   -1.9732	    1.7466	   -0.5397
Cl	   -1.9876	   -1.5763	   -0.8717
N	    0.5909	   -1.4320	    0.8816
N	    0.6916	    1.2050	    1.0825
C	    2.4218	   -1.3033	   -0.9039
C	    1.3137	   -2.1359	   -0.1000
S	    1.9364	    0.1269	   -1.8802
C	    1.1139	   -1.0150	    2.1377
C	    1.2888	    2.1240	    0.1923
C	    1.4649	    0.5645	    2.1004
C	    2.3685	    1.5112	   -0.8222
H	    3.2379	   -1.0123	   -0.2126
H	    2.8268	   -2.0293	   -1.6385
H	    0.5922	   -2.5448	   -0.8401
H	    1.8801	   -2.9740	    0.3640
H	    2.0004	   -1.6078	    2.4494
H	    0.3201	   -1.1237	    2.9046
H	    1.8591	    2.8987	    0.7523
H	    0.4873	    2.6137	   -0.4007
H	    1.1720	    0.9148	    3.1151
H	    2.5495	    0.7829	    1.9752
H	    2.6114	    2.3412	   -1.5163
H	    3.2855	    1.2490	   -0.2577
