49
WASQUC charge=0
Ag	   -1.6944	    0.2518	    0.3295
O	   -5.2047	   -1.2222	   -0.0538
O	   -3.6571	   -0.1277	    1.5937
O	   -4.0845	    0.9632	   -0.6050
Cl	   -4.7791	    0.1333	    0.5106
N	   -0.9907	    2.3169	   -0.2382
N	    3.2429	    2.4188	   -0.2701
N	   -1.3569	   -1.9554	   -0.2082
N	    3.3256	   -1.3371	   -1.3221
C	   -1.8489	    3.1622	   -0.8311
H	   -2.8730	    2.7719	   -0.9686
C	   -1.4649	    4.4516	   -1.2337
H	   -2.1967	    5.1131	   -1.7198
C	   -0.1455	    4.8632	   -1.0059
H	    0.1902	    5.8675	   -1.3056
C	    0.7489	    3.9777	   -0.3884
H	    1.7948	    4.2501	   -0.2067
C	    0.2896	    2.7012	   -0.0114
C	    1.1146	    1.6954	    0.7471
C	    2.6143	    1.6511	    0.6404
C	    3.3025	    0.7661	    1.4997
H	    2.7233	    0.1737	    2.2211
C	    4.5740	    2.3178	   -0.3697
H	    5.0584	    2.9556	   -1.1303
C	    5.3478	    1.4642	    0.4352
H	    6.4404	    1.4246	    0.3112
C	    4.6932	    0.6773	    1.3954
H	    5.2613	   -0.0001	    2.0504
C	   -2.3109	   -4.1584	   -0.3761
H	   -3.2042	   -4.7926	   -0.2816
O	    0.5439	    0.8757	    1.4749
O	    0.7152	   -0.3345	   -1.2554
C	    2.6700	   -2.7276	    0.5536
H	    1.8610	   -3.1310	    1.1801
C	    2.3750	   -1.8816	   -0.5362
C	    0.9542	   -1.4568	   -0.8332
C	    4.0135	   -3.0209	    0.8299
H	    4.2814	   -3.6668	    1.6800
C	   -2.4084	   -2.7848	   -0.0889
H	   -3.3658	   -2.3243	    0.2192
C	   -0.1606	   -2.4523	   -0.5994
C	    4.6000	   -1.6423	   -1.0608
H	    5.3570	   -1.1939	   -1.7292
C	    0.0197	   -3.8182	   -0.8856
H	    1.0025	   -4.1876	   -1.2125
C	   -1.0792	   -4.6845	   -0.7797
H	   -0.9705	   -5.7539	   -1.0159
C	    5.0018	   -2.4771	    0.0002
H	    6.0686	   -2.6877	    0.1688
