67
YAZFIP charge=0
Co	    0.0116	    0.3807	   -0.2242
N	   -1.7331	   -0.3614	   -0.6320
N	   -0.5709	    1.3874	    1.2400
N	    1.6278	    1.0860	    0.2037
H	    2.4953	    0.7971	   -0.2774
N	    0.5314	   -0.7034	   -1.7343
O	   -3.7901	   -1.1848	   -0.0244
O	   -1.9190	   -0.5509	    2.5653
O	    1.8226	   -2.7380	    1.6651
O	    0.4251	   -1.1916	    0.8888
O	   -0.4717	    1.8815	   -1.3601
O	    3.3147	   -0.9866	   -0.5334
O	    1.5645	    2.8918	   -1.3571
C	   -2.7717	   -0.5108	    0.2298
C	   -2.6880	    0.1990	    1.6209
C	   -2.1519	   -1.9429	    2.6286
H	   -1.4735	   -2.3352	    3.4101
H	   -1.9002	   -2.4532	    1.6730
H	   -3.2041	   -2.1926	    2.8979
C	   -4.1140	    0.4238	    2.1364
H	   -4.0721	    0.8163	    3.1712
H	   -4.6837	   -0.5222	    2.1132
H	   -4.6601	    1.1436	    1.4946
C	   -1.9554	    1.5418	    1.5233
H	   -2.4615	    2.1659	    0.7386
H	   -2.0725	    2.0817	    2.4922
C	    0.3528	    2.3883	    1.6588
H	    0.1582	    2.6957	    2.7120
H	    0.3067	    3.3173	    1.0315
C	    1.7685	    1.7895	    1.4540
C	    2.0396	    0.8006	    2.6270
H	    1.1758	    0.1200	    2.7418
H	    2.2041	    1.3810	    3.5565
H	    2.9455	    0.1964	    2.4326
C	    2.8892	    2.8366	    1.3796
H	    2.7283	    3.5199	    0.5265
H	    3.8708	    2.3366	    1.2497
H	    2.9313	    3.4162	    2.3232
C	   -0.5288	   -0.6252	   -2.7182
H	   -0.3473	   -1.3071	   -3.5756
H	   -0.6100	    0.4184	   -3.0724
C	   -1.8319	   -1.0188	   -1.9624
C	   -1.8883	   -2.5522	   -1.8165
H	   -2.7949	   -2.8263	   -1.2481
H	   -1.0080	   -2.9301	   -1.2586
H	   -1.9218	   -3.0402	   -2.8123
C	   -3.0255	   -0.4886	   -2.7766
H	   -3.9715	   -0.7983	   -2.2988
H	   -2.9932	   -0.8851	   -3.8126
H	   -2.9881	    0.6181	   -2.8163
C	    1.4438	   -1.9852	    0.7632
C	    0.3810	    2.7819	   -1.7343
C	    2.2784	   -2.0012	   -0.5906
C	    4.3707	   -1.2348	    0.3911
H	    4.9133	   -0.2760	    0.5060
H	    5.0848	   -1.9966	    0.0090
H	    3.9902	   -1.5668	    1.3806
C	    2.8648	   -3.3958	   -0.8122
H	    3.5519	   -3.3893	   -1.6823
H	    2.0495	   -4.1208	   -1.0051
H	    3.3905	   -3.7414	    0.0943
C	    1.3920	   -1.6574	   -1.7579
H	    1.4150	   -2.3280	   -2.6421
C	   -0.1659	    3.7561	   -2.7711
H	    0.0303	    3.3399	   -3.7808
H	    0.3543	    4.7282	   -2.6933
H	   -1.2581	    3.8806	   -2.6553
