89
charge=0
Mo     0.757064    13.097251     3.168757
C      0.065250    14.739586     3.838890
H     -0.864433    14.588392     3.777805
C      0.523346    16.119824     4.277755
C      1.234721    16.827888     3.074239
H      2.054592    16.342312     2.848807
H      1.458485    17.748696     3.323305
H      0.635784    16.836008     2.299771
C      1.474367    16.051616     5.483090
H      1.023901    15.605016     6.230288
H      1.726891    16.959432     5.752154
H      2.277336    15.546552     5.237660
C     -0.705148    16.946440     4.706803
H     -1.345931    16.988664     3.966877
H     -0.421692    17.852632     4.946779
H     -1.129547    16.520952     5.481272
N      2.399140    13.322484     3.098964
C      3.844132    13.333040     2.817901
C      4.356630    11.939648     2.919709
H      4.079206    11.551512     3.775987
H      5.334869    11.946144     2.866987
H      3.993081    11.402104     2.185237
C      4.082283    13.914432     1.428948
H      3.653151    13.342784     0.756288
H      5.045834    13.956656     1.252602
H      3.701365    14.815752     1.381680
C      4.478292    14.224616     3.841435
H      4.054986    15.108072     3.814165
H      5.435453    14.313936     3.648727
H      4.360606    13.833232     4.732255
N      0.473347    11.910903     4.796613
C     -0.469600    12.083534     5.788150
H     -0.984113    12.871824     5.919410
C     -0.554264    10.951444     6.554437
H     -1.132767    10.812592     7.295636
C      0.376103    10.034534     6.037398
H      0.547269     9.159360     6.363002
C      0.988884    10.641422     4.977140
H      1.668612    10.249064     4.443193
O     -0.355968    12.521527     1.762915
C     -1.178968    12.241874     0.727382
C     -2.503911    12.703740     0.752834
C     -3.330465    12.393556    -0.328331
H     -4.229219    12.699680    -0.332694
C     -2.858557    11.644405    -1.396588
H     -3.429873    11.447576    -2.130697
C     -1.549411    11.184488    -1.389316
H     -1.233167    10.663184    -2.117971
C     -0.688341    11.475509    -0.329785
C     -2.998518    13.495278     1.918718
C     -3.189742    14.877789     1.799821
C     -3.655945    15.596084     2.902620
H     -3.806425    16.530696     2.814265
C     -3.906433    14.987246     4.122862
C     -3.700690    13.616428     4.224488
H     -3.866416    13.185256     5.054042
C     -3.257837    12.857046     3.140232
C     -2.869851    15.596246     0.514494
H     -3.495883    15.311072    -0.183618
H     -1.954130    15.382528     0.239976
H     -2.952962    16.563176     0.650844
C     -4.391529    15.788690     5.306925
H     -4.786822    15.184400     5.970314
H     -5.065690    16.434880     5.010410
H     -3.636959    16.265984     5.710340
C     -3.078461    11.367838     3.296399
H     -2.122499    11.152008     3.294217
H     -3.518550    10.906784     2.552473
H     -3.477485    11.077304     4.143223
C      0.722501    10.986685    -0.316150
C      1.697388    11.644892    -1.075529
C      3.001741    11.153632    -1.075166
H      3.666579    11.605104    -1.583478
C      3.353206    10.026414    -0.354328
C      2.379261     9.403122     0.413232
H      2.611901     8.634808     0.919908
C      1.071671     9.874082     0.459227
C      1.364473    12.897321    -1.853815
H      0.737652    12.676944    -2.574289
H      2.184847    13.271328    -2.237959
H      0.955530    13.555528    -1.254420
C      4.764179     9.485946    -0.397233
H      4.998289     9.113888     0.478134
H      5.384835    10.210088    -0.619938
H      4.824073     8.782592    -1.078074
C      0.062218     9.201259     1.356592
H      0.396700     8.318128     1.619838
H     -0.785828     9.099272     0.876276
H     -0.080006     9.748872     2.156149
