69

Cu	    0.0729	    1.6850	   -0.4589
Cl	   -0.1176	    3.7800	   -0.7549
C	   -2.7996	   -0.5551	   -1.0491
C	   -2.1480	   -0.8665	   -2.3919
H	   -1.1600	   -1.3257	   -2.1923
N	   -0.6806	   -0.9503	    0.1396
C	   -0.3111	   -2.3859	    0.4606
C	    0.3248	   -0.1321	   -0.1329
C	    1.6307	   -0.9033	   -0.0469
C	   -3.9566	    0.4147	    1.3391
H	   -4.4051	    0.8362	    2.2512
C	    3.7177	   -1.2683	    1.3689
H	    4.2572	   -0.9431	    2.2841
H	    3.4894	   -2.3456	    1.5091
C	    2.9626	    0.8445	   -1.3815
H	    2.0681	    1.4912	   -1.5275
H	    3.6031	    0.9848	   -2.2786
C	   -2.5944	    0.0580	    1.3479
C	    1.1644	   -2.3869	    0.0117
H	    1.2351	   -2.8244	   -1.0055
H	    1.7805	   -3.0190	    0.6768
C	    2.8191	    1.0544	    1.1141
H	    1.9153	    1.6980	    1.0322
H	    3.3503	    1.3604	    2.0408
C	   -1.1750	   -3.3802	   -0.3217
H	   -2.2481	   -3.2711	   -0.0682
H	   -0.8658	   -4.4114	   -0.0598
H	   -1.0581	   -3.2592	   -1.4144
C	   -2.0491	   -0.4833	    0.1545
C	   -1.7414	    0.4011	    2.5644
H	   -0.7418	   -0.0499	    2.4168
C	   -4.7388	    0.2721	    0.1885
H	   -5.8028	    0.5525	    0.2073
C	   -4.1548	   -0.1812	   -1.0000
H	   -4.7583	   -0.2265	   -1.9186
C	   -2.9555	   -1.8502	   -3.2499
H	   -3.1632	   -2.7948	   -2.7078
H	   -2.4002	   -2.0989	   -4.1769
H	   -3.9295	   -1.4211	   -3.5618
C	    3.8375	   -1.4896	   -1.1349
H	    3.5933	   -2.5721	   -1.0929
H	    4.4736	   -1.3455	   -2.0341
C	    4.6118	   -1.0662	    0.1301
H	    5.5273	   -1.6873	    0.2293
C	   -1.8787	    0.4528	   -3.1421
H	   -1.2573	    1.1427	   -2.5306
H	   -2.8270	    0.9791	   -3.3750
H	   -1.3461	    0.2606	   -4.0961
C	    3.7232	    1.2723	   -0.1138
H	    3.9861	    2.3481	   -0.1877
C	    2.4281	   -0.4350	    1.2274
H	    1.7873	   -0.5807	    2.1236
C	   -0.4749	   -2.6574	    1.9638
H	    0.1663	   -1.9972	    2.5775
H	   -0.1888	   -3.7063	    2.1769
H	   -1.5268	   -2.5218	    2.2813
C	   -2.3165	   -0.1439	    3.8802
H	   -2.4753	   -1.2403	    3.8440
H	   -3.2907	    0.3265	    4.1254
H	   -1.6287	    0.0752	    4.7220
C	    2.5587	   -0.6379	   -1.2778
H	    2.0052	   -0.9383	   -2.1946
C	   -1.5344	    1.9268	    2.6385
H	   -1.0934	    2.3288	    1.7013
H	   -0.8551	    2.1856	    3.4766
H	   -2.4971	    2.4529	    2.8043
C	    4.9993	    0.4217	    0.0245
H	    5.6633	    0.5824	   -0.8521
H	    5.5726	    0.7300	    0.9255
