28

Mn	   -1.1832	   -0.1355	   -0.0002
C	   -3.3274	   -0.5016	   -0.0041
C	   -2.9591	    0.2678	   -1.1554
C	   -2.3973	    1.5076	   -0.7115
C	   -2.3992	    1.5033	    0.7183
C	   -2.9626	    0.2605	    1.1528
C	   -0.6151	   -1.2478	    1.2528
O	   -0.2676	   -1.9869	    2.0900
C	   -0.6180	   -1.2545	   -1.2485
O	   -0.2729	   -1.9979	   -2.0829
C	    0.3963	    0.8146	   -0.0025
F	    0.3080	    2.1856	   -0.0036
C	    1.8292	    0.4525	   -0.0017
C	    2.2598	   -0.8988	   -0.0013
C	    3.6206	   -1.2186	   -0.0004
C	    4.5902	   -0.2015	    0.0002
C	    4.1843	    1.1428	   -0.0002
C	    2.8238	    1.4672	   -0.0012
H	   -3.7798	   -1.4996	   -0.0078
H	   -3.0907	   -0.0380	   -2.2005
H	   -2.0036	    2.3047	   -1.3517
H	   -2.0077	    2.2964	    1.3647
H	   -3.0970	   -0.0519	    2.1955
H	    1.5232	   -1.7111	   -0.0019
H	    3.9285	   -2.2749	   -0.0002
H	    5.6607	   -0.4574	    0.0009
H	    4.9363	    1.9465	    0.0002
H	    2.5094	    2.5188	   -0.0015
