25

Re	    1.1219	    0.3546	   -0.0001
Br	    0.9973	   -2.3244	    0.0004
C	   -1.0568	    0.2674	   -0.0001
C	    1.0984	    2.2769	   -0.0005
C	    3.1108	    0.2670	    0.0000
O	    1.0348	    3.4477	   -0.0008
O	    4.2685	    0.2056	    0.0001
O	    1.0356	    0.1542	   -3.1618
C	   -3.2746	    0.8087	   -0.0000
N	   -1.9666	    1.2863	   -0.0000
H	   -1.6878	    2.2681	   -0.0000
O	    1.0354	    0.1562	    3.1617
C	   -3.1568	   -0.6067	   -0.0000
N	   -1.7940	   -0.8701	   -0.0001
H	   -1.2873	   -1.7785	    0.0000
C	    1.0779	    0.2458	   -2.0099
C	   -4.5255	    1.4412	    0.0000
H	   -4.6172	    2.5366	    0.0001
C	    1.0778	    0.2470	    2.0099
C	   -5.6561	    0.6116	    0.0000
H	   -6.6565	    1.0687	    0.0001
C	   -5.5404	   -0.7976	   -0.0000
H	   -6.4535	   -1.4108	   -0.0000
C	   -4.2906	   -1.4323	   -0.0001
H	   -4.1998	   -2.5275	   -0.0001
