50
AHUCAI charge=+1
Mn	   -0.1260	   -0.0892	    0.5821
N	    0.5267	    1.8796	   -0.1804
O	    0.1464	   -0.6158	    2.2290
N	    1.8385	   -0.8614	    0.0618
O	   -0.5070	    0.6361	    2.3266
C	    2.4181	   -0.4021	   -1.2322
H	    1.7479	   -0.7424	   -2.0446
H	    3.3936	   -0.9218	   -1.3802
C	    1.2542	    2.5729	    0.9129
H	    1.3240	    3.6631	    0.7043
H	    2.2786	    2.1781	    1.0080
H	    0.7239	    2.3846	    1.8655
N	   -0.7308	   -1.8188	   -0.4848
C	    1.5985	   -2.3283	   -0.0254
H	    1.3800	   -2.6896	    0.9986
H	    2.5164	   -2.8584	   -0.3694
N	   -2.0797	    0.5838	   -0.2855
C	   -1.4793	   -2.6048	    0.5337
H	   -2.0032	   -3.4630	    0.0579
H	   -2.2139	   -1.9712	    1.0603
H	   -0.7769	   -2.9788	    1.2984
C	   -1.7649	    1.7682	   -1.1169
H	   -2.6845	    2.3612	   -1.3309
H	   -1.3750	    1.4185	   -2.0937
C	    1.3308	    1.9065	   -1.4290
H	    1.5716	    2.9674	   -1.6774
H	    0.6931	    1.5227	   -2.2516
C	   -2.6917	   -0.4960	   -1.1063
H	   -3.2844	   -0.0788	   -1.9494
H	   -3.4084	   -1.0518	   -0.4732
C	    0.4340	   -2.6140	   -0.9492
H	    0.6645	   -2.3269	   -1.9926
H	    0.1996	   -3.7004	   -0.9676
C	   -0.7390	    2.6252	   -0.4091
H	   -1.1271	    2.9375	    0.5789
H	   -0.5424	    3.5592	   -0.9834
C	   -1.6099	   -1.4291	   -1.6150
H	   -2.0629	   -2.3221	   -2.1056
H	   -0.9724	   -0.9219	   -2.3675
C	    2.6180	    1.0972	   -1.3810
H	    3.1412	    1.2582	   -2.3457
H	    3.3146	    1.4913	   -0.6146
C	   -2.9959	    0.9520	    0.8200
H	   -3.9881	    1.2540	    0.4179
H	   -2.5731	    1.7774	    1.4169
H	   -3.1160	    0.0973	    1.5102
C	    2.8168	   -0.6365	    1.1552
H	    3.7595	   -1.1897	    0.9499
H	    2.3793	   -0.9715	    2.1111
H	    3.0530	    0.4356	    1.2497
