38
AVOVUC charge=0
Mo	   -1.9835	   -0.1499	   -0.3768
P	    1.3020	    0.1742	   -0.1860
O	    0.0249	   -0.4117	   -0.8930
O	   -1.9959	    1.5394	   -0.5195
O	   -2.2941	   -0.9909	   -2.0708
O	   -3.5144	   -0.8955	   -1.2764
O	   -1.3806	   -0.6430	    1.3948
O	   -2.8347	   -0.5724	    1.3170
C	    1.6943	   -0.7608	    1.3272
H	    2.6178	   -0.3278	    1.7707
H	    0.8576	   -0.5449	    2.0250
C	    1.8140	   -2.2727	    1.0910
H	    0.9063	   -2.6167	    0.5534
H	    2.6753	   -2.4846	    0.4201
C	    1.9676	   -3.0483	    2.3996
H	    2.0526	   -4.1367	    2.2107
H	    1.0894	   -2.8878	    3.0575
H	    2.8720	   -2.7308	    2.9590
C	    1.1189	    1.9466	    0.2176
H	    2.1205	    2.4204	    0.1258
H	    0.4903	    2.3406	   -0.6110
C	    0.4726	    2.2653	    1.5765
H	   -0.4078	    1.6098	    1.7368
H	    1.1923	    2.0250	    2.3883
C	    0.0409	    3.7287	    1.6655
H	   -0.3866	    3.9556	    2.6620
H	   -0.7384	    3.9462	    0.9074
H	    0.8915	    4.4216	    1.4957
C	    2.6609	   -0.0094	   -1.3887
H	    2.5687	   -1.0453	   -1.7792
H	    2.4014	    0.6619	   -2.2359
C	    4.0727	    0.2693	   -0.8578
H	    4.1131	    1.2836	   -0.4039
H	    4.3068	   -0.4417	   -0.0366
C	    5.1364	    0.1563	   -1.9519
H	    6.1494	    0.3526	   -1.5485
H	    4.9516	    0.8826	   -2.7696
H	    5.1427	   -0.8575	   -2.4021
