65
BOLMIB charge=0
Rh	    0.0877	   -0.2596	   -0.0335
Cl	   -0.0192	   -0.5372	   -2.4573
P	   -2.1554	   -0.2036	    0.0421
O	    0.2016	   -1.9245	    1.1533
O	    0.4049	   -0.7407	    1.8934
N	   -0.0537	    1.7005	   -0.4374
N	    2.2461	    0.3209	   -0.0019
C	   -2.3931	    1.3338	   -1.0016
H	   -2.3267	    0.9564	   -2.0433
H	   -3.3708	    1.8357	   -0.8651
C	   -1.2369	    2.2731	   -0.7978
C	   -1.3250	    3.6582	   -0.9807
H	   -2.2880	    4.1069	   -1.2622
C	   -0.1754	    4.4497	   -0.8136
H	   -0.2226	    5.5379	   -0.9641
C	    1.0317	    3.8396	   -0.4651
H	    1.9425	    4.4416	   -0.3548
C	    1.0764	    2.4434	   -0.2764
C	    2.2901	    1.6922	    0.0942
C	    3.4378	    2.3727	    0.5372
H	    3.4282	    3.4647	    0.6436
C	    4.5717	    1.6340	    0.8700
H	    5.4745	    2.1303	    1.2555
C	    4.5433	    0.2528	    0.6800
H	    5.4359	   -0.3438	    0.9001
C	    3.3803	   -0.4001	    0.2072
C	    3.4721	   -1.9183	   -0.0466
C	    2.4508	   -2.4193	   -1.0790
H	    2.6643	   -3.4838	   -1.3035
H	    2.4926	   -1.8447	   -2.0236
H	    1.4216	   -2.3613	   -0.6886
C	    3.2641	   -2.6537	    1.2991
H	    2.2241	   -2.5098	    1.6480
H	    3.9719	   -2.2906	    2.0728
H	    3.4419	   -3.7395	    1.1531
C	    4.8797	   -2.2630	   -0.5977
H	    4.8913	   -3.3322	   -0.8870
H	    5.6907	   -2.1285	    0.1452
H	    5.1262	   -1.6660	   -1.4994
C	   -2.8234	    0.2573	    1.7717
C	   -4.2874	    0.7312	    1.7459
H	   -5.0033	   -0.0755	    1.5155
H	   -4.4523	    1.5619	    1.0295
H	   -4.5440	    1.1211	    2.7537
C	   -1.9484	    1.4183	    2.2895
H	   -2.0615	    2.3393	    1.6833
H	   -0.8829	    1.1246	    2.3236
H	   -2.2743	    1.6620	    3.3226
C	   -2.6340	   -0.9511	    2.7076
H	   -2.9830	   -0.6719	    3.7248
H	   -1.5619	   -1.2200	    2.7608
H	   -3.2148	   -1.8377	    2.3900
C	   -3.1281	   -1.6447	   -0.7827
C	   -2.2192	   -2.8813	   -0.6300
H	   -1.9430	   -3.0739	    0.4247
H	   -1.2801	   -2.7377	   -1.1986
H	   -2.7503	   -3.7689	   -1.0342
C	   -4.5060	   -1.9188	   -0.1581
H	   -5.2057	   -1.0713	   -0.2932
H	   -4.4590	   -2.1778	    0.9157
H	   -4.9465	   -2.7917	   -0.6846
C	   -3.3393	   -1.3443	   -2.2783
H	   -3.7852	   -2.2464	   -2.7483
H	   -2.3796	   -1.1294	   -2.7881
H	   -4.0475	   -0.5063	   -2.4405
