18
MOZDUC charge=0
Mo	   -0.2662	   -0.4505	   -0.2615
F	    1.9154	    0.8752	    1.3693
F	    1.9956	    1.4595	   -0.7407
F	    2.6975	   -0.5069	   -0.1255
O	    0.5556	   -1.7759	    0.8873
O	   -0.8031	   -2.1089	    0.5602
O	    0.0654	   -0.7194	   -1.9007
C	   -2.4716	    0.4863	   -0.4036
C	   -1.5667	    1.4804	   -0.8715
C	   -0.7314	    1.8534	    0.2238
C	   -1.1818	    1.1466	    1.3982
C	   -2.2486	    0.3103	    1.0119
C	    1.7417	    0.4137	    0.1014
H	   -3.2228	   -0.0406	   -1.0055
H	   -1.4679	    1.8320	   -1.9051
H	    0.0793	    2.5885	    0.1904
H	   -0.7168	    1.1998	    2.3895
H	   -2.7603	   -0.4200	    1.6498
