54
YUWVIW charge=+1
Cr	   -0.0123	   -0.0001	    0.1198
Cl	   -0.0468	    0.0003	    2.3544
O	   -0.0790	   -0.0000	   -1.5358
N	   -1.4433	   -1.6547	    0.0136
N	    1.4854	    1.6010	    0.1023
N	   -1.4430	    1.6550	    0.0134
N	    1.4848	   -1.6013	    0.1024
O	   -0.2271	    0.0000	   -2.8011
C	   -3.3392	    0.0003	   -0.3999
H	   -3.5789	    0.0004	    0.6833
H	   -4.3245	    0.0004	   -0.9094
C	   -2.6277	    1.2850	   -0.8177
H	   -2.2828	    1.1804	   -1.8652
H	   -3.3434	    2.1378	   -0.7976
C	   -0.6378	    2.6725	   -0.7239
H	   -0.5306	    2.3297	   -1.7709
H	   -1.1780	    3.6462	   -0.7577
C	   -2.6279	   -1.2846	   -0.8175
H	   -3.3438	   -2.1373	   -0.7972
H	   -2.2830	   -1.1802	   -1.8650
C	    0.7174	    2.8759	   -0.0735
H	    0.5847	    3.3189	    0.9316
H	    1.3137	    3.6078	   -0.6615
C	    0.7167	   -2.8762	   -0.0733
H	    1.3129	   -3.6081	   -0.6615
H	    0.5842	   -3.3193	    0.9317
C	   -1.9179	   -2.2125	    1.3001
H	   -2.5528	   -3.1063	    1.1131
H	   -2.5045	   -1.4546	    1.8466
H	   -1.0691	   -2.4866	    1.9475
C	   -0.6384	   -2.6726	   -0.7237
H	   -1.1790	   -3.6461	   -0.7573
H	   -0.5313	   -2.3300	   -1.7707
C	    2.3599	   -1.7936	    1.2847
H	    1.7415	   -1.9229	    2.1892
H	    3.0084	   -0.9181	    1.4434
H	    3.0080	   -2.6848	    1.1359
C	   -1.9175	    2.2131	    1.2998
H	   -2.5522	    3.1070	    1.1127
H	   -1.0687	    2.4870	    1.9473
H	   -2.5044	    1.4554	    1.8463
C	    2.3363	    1.3281	   -1.1010
H	    3.0817	    2.1521	   -1.1871
H	    1.6950	    1.3846	   -2.0004
C	    2.3605	    1.7935	    1.2845
H	    3.0100	    0.9187	    1.4425
H	    1.7423	    1.9218	    2.1892
H	    3.0078	    2.6854	    1.1360
C	    2.3359	   -1.3288	   -1.1009
H	    1.6946	   -1.3853	   -2.0003
H	    3.0811	   -2.1531	   -1.1868
C	    3.1038	   -0.0005	   -1.0833
H	    3.8435	   -0.0006	   -0.2574
H	    3.7248	   -0.0006	   -2.0032
