29

C	   -0.1914	    0.7240	   -1.3396
C	    1.1191	   -1.1751	   -0.8054
C	    1.8642	    0.0001	   -0.5032
C	    3.1645	    0.0002	    0.0523
C	   -2.3141	    1.4978	    0.7817
C	   -2.3141	   -1.4984	    0.7807
C	   -0.3830	   -0.0004	    1.4229
C	   -2.8694	    0.0005	   -1.1865
C	   -0.1913	   -0.7239	   -1.3396
C	    1.7077	   -2.4112	   -0.5556
C	    3.0273	   -2.4430	   -0.0122
C	    3.7444	   -1.2847	    0.2900
C	    3.7443	    1.2851	    0.2901
C	    3.0270	    2.4433	   -0.0119
C	    1.7074	    2.4114	   -0.5554
C	    1.1190	    1.1752	   -0.8053
Fe	   -1.6165	   -0.0001	    0.1021
H	   -0.7348	    1.3317	   -2.0773
H	   -0.7348	   -1.3317	   -2.0773
H	    1.1780	   -3.3540	   -0.7612
H	    3.4928	   -3.4223	    0.1778
H	    4.7600	   -1.3576	    0.7088
H	    4.7599	    1.3580	    0.7090
H	    3.4924	    3.4227	    0.1781
H	    1.1776	    3.3541	   -0.7609
O	   -2.7798	    2.4584	    1.2380
O	   -2.7797	   -2.4593	    1.2364
O	    0.3536	   -0.0008	    2.3127
O	   -3.6858	    0.0010	   -2.0083
