48

Pd	    0.6032	   -1.0290	   -1.1591
Cl	    1.7938	    0.5155	   -2.4240
Cl	    1.1883	   -2.8346	   -2.5658
P	    0.1766	    0.6849	    0.2437
N	   -1.3495	    0.5879	    1.0155
H	   -1.7972	    1.4864	    1.2442
C	   -2.3349	   -0.4083	    0.6296
H	   -2.1200	   -0.7758	   -0.4047
C	   -3.7002	    0.2691	    0.5489
O	   -3.8825	    1.4631	    0.7223
O	   -4.6718	   -0.6092	    0.2510
C	   -5.9928	   -0.0580	    0.1188
H	   -6.6539	   -0.9087	   -0.1209
H	   -6.0194	    0.6956	   -0.6930
H	   -6.3089	    0.4293	    1.0623
C	   -2.3486	   -1.6367	    1.5637
H	   -2.7015	   -1.3257	    2.5700
H	   -3.0743	   -2.3769	    1.1709
C	   -0.9681	   -2.2638	    1.7212
H	   -1.0281	   -3.1803	    2.3428
H	   -0.2525	   -1.5642	    2.1989
S	   -0.2718	   -2.8050	    0.0987
C	    1.2741	   -3.5474	    0.7204
H	    1.8141	   -3.8597	   -0.1929
H	    1.0239	   -4.4169	    1.3589
H	    1.8617	   -2.7935	    1.2788
C	    0.2244	    2.4313	   -0.3125
C	   -0.9589	    3.0261	   -0.7956
H	   -1.9049	    2.4645	   -0.8017
C	   -0.9386	    4.3489	   -1.2617
H	   -1.8671	    4.8070	   -1.6345
C	    0.2579	    5.0812	   -1.2537
H	    0.2723	    6.1183	   -1.6216
C	    1.4379	    4.4879	   -0.7763
H	    2.3794	    5.0574	   -0.7702
C	    1.4262	    3.1669	   -0.3104
H	    2.3544	    2.7074	    0.0565
C	    1.4361	    0.5810	    1.5791
C	    2.7735	    0.3005	    1.2220
H	    3.0335	    0.1696	    0.1579
C	    3.7502	    0.1860	    2.2226
H	    4.7924	   -0.0303	    1.9426
C	    3.3989	    0.3351	    3.5750
H	    4.1666	    0.2352	    4.3573
C	    2.0673	    0.6060	    3.9293
H	    1.7904	    0.7205	    4.9885
C	    1.0852	    0.7317	    2.9344
H	    0.0368	    0.9356	    3.2010
