39

Pd	   -0.6525	   -0.4636	    0.2832
Br	   -0.6966	   -1.9199	   -1.7307
Br	   -0.3425	    1.0328	    2.2364
N	    3.4719	   -0.5564	    0.2526
N	    2.2145	   -0.0680	   -0.0600
N	   -2.7353	   -0.0286	    0.1363
C	    1.2433	   -0.8779	    0.4422
C	    1.9284	   -1.9429	    1.0802
H	    1.4561	   -2.7778	    1.6051
C	    3.2988	   -1.7282	    0.9397
C	    4.4509	   -2.5586	    1.3989
H	    5.0284	   -2.9762	    0.5474
H	    4.0743	   -3.4084	    1.9962
H	    5.1530	   -1.9807	    2.0349
C	    4.6652	   -0.0416	   -0.3834
H	    4.7831	    1.0408	   -0.1876
H	    4.6363	   -0.2019	   -1.4816
H	    5.5347	   -0.5762	    0.0376
C	    2.0436	    1.1736	   -0.7491
C	    2.3973	    2.3756	   -0.1133
H	    2.7719	    2.3525	    0.9200
C	    2.2132	    3.5863	   -0.7951
H	    2.4796	    4.5339	   -0.3037
C	    1.6605	    3.5906	   -2.0864
H	    1.5068	    4.5446	   -2.6131
C	    1.2864	    2.3834	   -2.6990
H	    0.8337	    2.3878	   -3.7017
C	    1.4786	    1.1635	   -2.0349
H	    1.1583	    0.2059	   -2.4741
C	   -3.6057	   -0.9751	   -0.2804
H	   -3.1594	   -1.9413	   -0.5622
C	   -4.9803	   -0.7313	   -0.3831
H	   -5.6488	   -1.5369	   -0.7193
C	   -5.4726	    0.5411	   -0.0608
H	   -6.5476	    0.7647	   -0.1378
C	   -4.5648	    1.5221	    0.3620
H	   -4.8979	    2.5360	    0.6266
C	   -3.2064	    1.1976	    0.4557
H	   -2.4542	    1.9131	    0.8239
