62

Pd	    1.2524	   -0.4028	    1.0532
Cl	    0.3320	   -0.8616	    3.1848
Cl	    3.2293	    0.5096	    1.9538
O	    5.9085	   -1.2623	   -1.3057
N	    1.5467	    1.0616	   -1.4650
H	    1.9237	    1.2345	   -2.4042
N	   -1.5487	   -1.2569	    0.1304
N	    3.1413	   -0.5998	   -1.2003
C	    0.2996	    1.7137	   -1.1714
C	   -0.8509	    1.2821	   -1.8754
C	   -2.0833	    1.8780	   -1.5692
H	   -2.9890	    1.5266	   -2.0891
C	   -2.1893	    2.8932	   -0.5982
C	   -1.0162	    3.3271	    0.0440
H	   -1.0789	    4.1352	    0.7900
C	    0.2472	    2.7655	   -0.2301
C	   -3.5360	    3.4812	   -0.2616
H	   -4.2324	    2.6907	    0.0897
H	   -3.4620	    4.2501	    0.5309
H	   -4.0063	    3.9495	   -1.1512
C	    1.4889	    3.2771	    0.4450
H	    1.9268	    2.5258	    1.1384
H	    1.2758	    4.1989	    1.0178
H	    2.2821	    3.5010	   -0.2979
C	   -0.7481	    0.1984	   -2.9177
H	   -1.7498	   -0.0915	   -3.2872
H	   -0.2488	   -0.7074	   -2.5166
H	   -0.1534	    0.5266	   -3.7979
C	   -2.9224	   -1.2420	    0.0204
C	   -3.6504	   -0.3816	    0.8895
C	   -5.0448	   -0.3466	    0.7321
H	   -5.6281	    0.3141	    1.3936
C	   -5.7160	   -1.1289	   -0.2293
C	   -4.9534	   -1.9794	   -1.0525
H	   -5.4633	   -2.6066	   -1.8010
C	   -3.5558	   -2.0611	   -0.9457
C	   -7.2183	   -1.0788	   -0.3427
H	   -7.5965	   -0.0386	   -0.2778
H	   -7.6973	   -1.6462	    0.4839
H	   -7.5732	   -1.5178	   -1.2951
C	   -2.9342	    0.4495	    1.9123
H	   -2.2519	   -0.1597	    2.5438
H	   -3.6499	    0.9855	    2.5629
H	   -2.2801	    1.2007	    1.4207
C	   -2.7426	   -2.9867	   -1.8096
H	   -3.3904	   -3.5800	   -2.4817
H	   -2.1465	   -3.6896	   -1.1913
H	   -2.0171	   -2.4266	   -2.4346
C	    2.0566	    0.0437	   -0.7385
C	    3.9850	   -0.1600	   -2.3182
H	    3.9158	   -0.8978	   -3.1481
H	    3.6593	    0.8263	   -2.7003
C	    5.4415	   -0.0451	   -1.8400
H	    5.4968	    0.7734	   -1.0803
H	    6.0964	    0.2172	   -2.6955
C	    5.1300	   -1.6323	   -0.1698
H	    5.5420	   -2.5882	    0.2085
H	    5.1969	   -0.8611	    0.6316
C	    3.6607	   -1.8094	   -0.5453
H	    3.5491	   -2.6582	   -1.2569
H	    3.0445	   -2.0094	    0.3531
C	   -0.4297	   -0.9906	    0.4264
