23

Au	    1.9753	   -0.0426	   -0.0264
C	    0.1419	    0.7988	    0.0505
C	   -1.6468	    2.0189	    0.8225
C	   -2.1149	    1.2772	   -0.4586
N	   -0.8322	    0.6710	   -0.8535
O	   -0.2799	    1.5583	    1.0570
C	   -2.9588	   -0.9164	    0.5108
C	   -3.9840	   -1.8454	    0.7349
C	   -5.2675	   -1.6205	    0.2097
C	   -5.5217	   -0.4644	   -0.5434
C	   -4.4947	    0.4648	   -0.7705
C	   -3.2087	    0.2481	   -0.2433
C	    3.7694	   -0.9051	   -0.1247
N	    4.8265	   -1.4214	   -0.1898
H	   -2.2491	    1.7625	    1.7138
H	   -1.6114	    3.1187	    0.6991
H	   -2.4434	    2.0008	   -1.2327
H	   -0.7293	    0.0655	   -1.6700
H	   -1.9530	   -1.1060	    0.9188
H	   -3.7785	   -2.7536	    1.3211
H	   -6.0704	   -2.3522	    0.3848
H	   -6.5236	   -0.2858	   -0.9616
H	   -4.6939	    1.3702	   -1.3660
