67

Cr	   -0.0000	   -1.6154	    0.0003
O	    0.0216	   -1.9178	    3.0342
O	   -2.1105	   -3.7529	    0.0115
O	    2.1105	   -3.7529	   -0.0125
O	   -0.0215	   -1.9156	   -3.0339
O	    1.6398	    3.2186	   -0.8597
O	   -1.6397	    3.2194	    0.8603
N	   -1.3775	    0.0307	   -0.0042
N	    1.3774	    0.0307	    0.0055
C	    0.0128	   -1.7587	    1.8804
C	   -1.3014	   -2.9026	    0.0086
C	    1.3013	   -2.9026	   -0.0090
C	   -0.0128	   -1.7574	   -1.8799
C	   -0.7090	    1.1457	   -0.0203
C	    0.7089	    1.1457	    0.0224
C	    0.8168	    2.6702	    0.1466
C	   -0.8168	    2.6702	   -0.1456
C	    1.1537	    3.1060	    1.5730
C	    1.8712	    4.6132	   -0.8044
C	   -1.1536	    3.1048	   -1.5723
C	   -1.8710	    4.6140	    0.8037
C	   -2.8392	    0.0790	   -0.0201
C	   -3.4164	   -0.5734	    1.2493
C	   -4.9494	   -0.5518	    1.2273
C	   -5.4993	   -1.2154	   -0.0420
C	   -4.9282	   -0.5521	   -1.3021
C	   -3.3949	   -0.5753	   -1.2977
C	    2.8391	    0.0790	    0.0207
C	    3.4157	   -0.5724	   -1.2496
C	    4.9487	   -0.5509	   -1.2283
C	    5.4992	   -1.2155	    0.0402
C	    4.9288	   -0.5531	    1.3011
C	    3.3955	   -0.5763	    1.2975
H	    0.5036	    2.5755	    2.2928
H	    2.2105	    2.8663	    1.8063
H	    0.9942	    4.1915	    1.7238
H	    2.5300	    4.9054	    0.0443
H	    2.3767	    4.8895	   -1.7496
H	    0.9261	    5.2010	   -0.7279
H	   -2.2104	    2.8649	   -1.8055
H	   -0.9941	    4.1902	   -1.7241
H	   -0.5035	    2.5736	   -2.2917
H	   -2.3763	    4.8912	    1.7488
H	   -2.5299	    4.9055	   -0.0450
H	   -0.9258	    5.2017	    0.7266
H	   -3.1511	    1.1490	   -0.0121
H	   -3.0195	   -0.0419	    2.1387
H	   -3.0563	   -1.6199	    1.3111
H	   -5.3075	    0.5016	    1.2763
H	   -5.3420	   -1.0568	    2.1341
H	   -6.6084	   -1.1752	   -0.0518
H	   -5.2191	   -2.2922	   -0.0400
H	   -5.2844	    0.5019	   -1.3560
H	   -5.3059	   -1.0562	   -2.2157
H	   -2.9822	   -0.0523	   -2.1858
H	   -3.0356	   -1.6228	   -1.3500
H	    3.1511	    1.1490	    0.0133
H	    3.0183	   -0.0402	   -2.1383
H	    3.0555	   -1.6189	   -1.3120
H	    5.3068	    0.5025	   -1.2767
H	    5.3408	   -1.0553	   -2.1357
H	    6.6084	   -1.1753	    0.0494
H	    5.2190	   -2.2922	    0.0375
H	    5.3070	   -1.0580	    2.2141
H	    5.2851	    0.5008	    1.3556
H	    2.9833	   -0.0539	    2.1861
H	    3.0362	   -1.6237	    1.3492
