53
CAMVIV Cr total_charge=+0 EN=18 VN=4 CrL₄X₄
Cr	    0.0000	    0.0000	   -0.0000
P	   -1.6474	    1.4608	    0.4614
C	   -2.0144	    1.8756	    2.2350
C	   -1.7846	    3.1569	   -0.2852
C	   -3.3038	    0.7551	   -0.1039
P	   -1.6474	   -1.4608	   -0.4614
C	   -1.7846	   -3.1569	    0.2852
C	   -2.0143	   -1.8756	   -2.2350
C	   -3.3038	   -0.7551	    0.1039
P	    1.6474	   -1.4608	    0.4614
C	    1.7846	   -3.1569	   -0.2853
C	    2.0143	   -1.8756	    2.2350
C	    3.3038	   -0.7550	   -0.1039
P	    1.6474	    1.4608	   -0.4614
C	    2.0144	    1.8755	   -2.2350
C	    1.7846	    3.1569	    0.2852
C	    3.3038	    0.7551	    0.1040
H	   -0.6053	    0.6058	   -1.3542
H	    0.6053	   -0.6058	   -1.3542
H	   -0.6053	   -0.6058	    1.3542
H	    0.6053	    0.6058	    1.3542
H	   -2.8987	    2.5361	    2.3448
H	   -2.1784	    0.9330	    2.7921
H	   -1.1255	    2.3715	    2.6724
H	   -2.7970	    3.5847	   -0.1322
H	   -1.0429	    3.8327	    0.1813
H	   -1.5707	    3.0914	   -1.3698
H	   -4.1458	    1.2605	    0.4151
H	   -3.3839	    0.9994	   -1.1850
H	   -1.0429	   -3.8327	   -0.1813
H	   -2.7970	   -3.5847	    0.1323
H	   -1.5707	   -3.0914	    1.3698
H	   -1.1255	   -2.3715	   -2.6724
H	   -2.8987	   -2.5361	   -2.3449
H	   -2.1784	   -0.9330	   -2.7921
H	   -4.1458	   -1.2605	   -0.4151
H	   -3.3839	   -0.9994	    1.1850
H	    2.7970	   -3.5847	   -0.1323
H	    1.0429	   -3.8327	    0.1812
H	    1.5707	   -3.0914	   -1.3698
H	    2.8986	   -2.5362	    2.3449
H	    1.1254	   -2.3716	    2.6724
H	    2.1783	   -0.9331	    2.7921
H	    4.1458	   -1.2605	    0.4152
H	    3.3840	   -0.9994	   -1.1849
H	    2.8988	    2.5360	   -2.3448
H	    2.1785	    0.9329	   -2.7920
H	    1.1256	    2.3715	   -2.6725
H	    1.5707	    3.0915	    1.3697
H	    1.0429	    3.8327	   -0.1814
H	    2.7970	    3.5847	    0.1322
H	    4.1458	    1.2605	   -0.4150
H	    3.3839	    0.9994	    1.1851
