23
CPCBCR Cr total_charge=+0 EN=18 VN=4 CrL₄X₄
Cr	   -0.1055	    0.0484	    0.0077
I	   -2.8609	   -0.0643	   -0.0170
C	   -0.3343	    1.8065	    0.7338
O	   -0.4338	    2.8703	    1.1713
C	   -0.2382	   -0.6836	    1.7715
O	   -0.2849	   -1.1271	    2.8367
C	   -0.1777	   -1.7173	   -0.7212
O	   -0.1792	   -2.7845	   -1.1630
C	   -0.2655	    0.7677	   -1.7612
O	   -0.3275	    1.2012	   -2.8293
C	    1.5879	    0.0969	    0.0237
C	    2.9970	    0.0766	    0.0349
C	    3.8222	   -1.2052	    0.1673
C	    5.2436	   -0.7373	   -0.2206
C	    5.2650	    0.7835	    0.0625
C	    3.8175	    1.1732	   -0.0160
H	    3.4362	   -2.0263	   -0.4690
H	    3.7671	   -1.5620	    1.2196
H	    5.3989	   -0.9052	   -1.3061
H	    6.0387	   -1.2911	    0.3149
H	    5.9074	    1.3579	   -0.6379
H	    5.6543	    1.0150	    1.0833
H	    3.4553	    2.2110	   -0.0634
