55
DEFVIT Cr total_charge=+0 EN=18 VN=4 CrL₄X₄
Cr	    0.0278	   -0.1167	    0.0226
P	   -2.1587	   -0.6536	    0.0997
P	   -0.5409	    2.1257	   -0.1342
P	    2.2316	    0.2523	    0.1059
C	    0.4047	   -1.8720	   -0.0878
Se	    0.7623	   -3.5563	   -0.3118
C	   -0.0515	    0.0229	    1.8891
O	   -0.1201	    0.1425	    3.0500
C	   -0.0142	   -0.0546	   -1.8417
O	   -0.0449	   -0.0389	   -3.0092
O	   -3.0407	   -0.8691	   -1.2778
C	   -2.7940	   -2.0133	   -2.0977
O	   -3.1098	    0.4435	    0.8734
C	   -4.5334	    0.3106	    0.8770
O	   -2.6205	   -2.0864	    0.8144
C	   -2.1058	   -2.4720	    2.0854
O	   -0.9383	    2.9913	    1.2088
C	    0.0911	    3.4329	    2.0990
O	   -1.9077	    2.3214	   -1.0251
C	   -2.5752	    3.5848	   -1.0843
O	    0.4730	    3.2715	   -0.7907
C	    1.1609	    3.0335	   -2.0174
O	    3.1622	    0.2553	   -1.2699
C	    3.3210	   -0.9558	   -2.0131
O	    3.2260	   -0.7771	    0.9569
C	    2.8305	   -1.3408	    2.2046
O	    2.6838	    1.7340	    0.6850
C	    4.0599	    2.1271	    0.7287
H	   -3.3529	   -1.8596	   -3.0406
H	   -1.7151	   -2.1264	   -2.3351
H	   -3.1458	   -2.9390	   -1.5976
H	   -4.9134	    0.9391	    1.7054
H	   -4.9597	    0.6637	   -0.0842
H	   -4.8400	   -0.7434	    1.0416
H	   -2.5994	   -3.4260	    2.3547
H	   -1.0091	   -2.6386	    2.0450
H	   -2.3326	   -1.7134	    2.8650
H	   -0.3798	    3.5919	    3.0880
H	    0.9043	    2.6842	    2.1945
H	    0.5334	    4.3832	    1.7346
H	   -3.2264	    3.5622	   -1.9791
H	   -3.1940	    3.7371	   -0.1767
H	   -1.8511	    4.4212	   -1.1744
H	    1.7259	    3.9571	   -2.2500
H	    1.8763	    2.1894	   -1.9353
H	    0.4520	    2.8265	   -2.8476
H	    4.0055	   -0.7282	   -2.8526
H	    3.7595	   -1.7529	   -1.3784
H	    2.3532	   -1.3154	   -2.4209
H	    3.6684	   -1.9805	    2.5436
H	    2.6429	   -0.5571	    2.9691
H	    1.9228	   -1.9695	    2.0950
H	    4.1216	    3.0073	    1.3971
H	    4.6962	    1.3108	    1.1282
H	    4.4221	    2.4024	   -0.2827
