50
FOGDUA Cr total_charge=+0 EN=18 VN=4 CrL₄X₄
Cr	    1.1071	   -0.1083	   -0.3815
O	    2.3185	   -2.0850	   -2.3063
O	    0.8213	    1.5228	   -2.8585
O	    0.0174	   -1.7519	    0.1046
C	    1.8299	   -1.3371	   -1.5542
C	    0.9151	    0.8526	   -1.8991
C	   -0.7672	    0.5657	   -0.4391
C	   -1.7893	   -0.3511	   -0.1810
C	   -1.2590	   -1.6442	    0.1310
C	   -3.2305	    0.0018	   -0.1483
C	   -3.6639	    1.1831	    0.4977
C	   -5.0184	    1.5414	    0.5191
C	   -5.9763	    0.7232	   -0.1016
C	   -5.5636	   -0.4519	   -0.7489
C	   -4.2071	   -0.8070	   -0.7744
C	   -2.0529	   -2.8555	    0.5318
C	    1.6951	   -0.2053	    1.7743
C	    1.2409	    1.1232	    1.4627
C	    2.0910	    1.6511	    0.4248
C	    3.0662	    0.6377	    0.0929
C	    2.8161	   -0.5163	    0.9354
C	    1.0871	   -1.1034	    2.8038
C	    0.1701	    1.8675	    2.1998
C	    2.0546	    3.0558	   -0.0972
C	    4.2153	    0.8048	   -0.8559
C	    3.6394	   -1.7668	    1.0076
H	   -1.0829	    1.6111	   -0.6240
H	   -2.9191	    1.8182	    1.0016
H	   -5.3308	    2.4638	    1.0326
H	   -7.0408	    1.0019	   -0.0826
H	   -6.3041	   -1.0946	   -1.2495
H	   -3.8935	   -1.7136	   -1.3131
H	   -3.0002	   -2.5796	    1.0327
H	   -2.3145	   -3.4589	   -0.3639
H	   -1.4399	   -3.4975	    1.1927
H	    1.5255	   -0.9045	    3.8056
H	   -0.0061	   -0.9452	    2.8820
H	    1.2568	   -2.1687	    2.5620
H	   -0.6748	    1.2049	    2.4700
H	    0.5743	    2.2996	    3.1409
H	   -0.2360	    2.7028	    1.5992
H	    1.0195	    3.4459	   -0.1469
H	    2.4813	    3.1278	   -1.1152
H	    2.6366	    3.7348	    0.5625
H	    3.9596	    1.4912	   -1.6857
H	    5.1028	    1.2244	   -0.3342
H	    4.5186	   -0.1597	   -1.3067
H	    4.1776	   -1.9587	    0.0601
H	    3.0072	   -2.6520	    1.2142
H	    4.3982	   -1.6972	    1.8168
