18
LESLIE Cr total_charge=+0 EN=18 VN=4 CrL₄X₄
As	   -1.1863	   -0.8770	    1.2049
As	   -1.1866	   -0.8752	   -1.2059
As	   -1.5526	    1.1601	    0.0012
Cr	    0.8691	    0.1098	    0.0000
O	    1.0599	    2.2108	    2.1397
O	    1.0587	    2.2092	   -2.1413
C	    0.9255	    1.4072	    1.3035
C	    0.9249	    1.4063	   -1.3044
C	    2.5135	   -0.7023	    1.1585
C	    1.7269	   -1.8107	    0.7143
C	    1.7287	   -1.8087	   -0.7176
C	    2.5164	   -0.6990	   -1.1567
C	    3.0180	   -0.0154	    0.0025
H	    2.7165	   -0.4409	    2.2035
H	    1.2465	   -2.5574	    1.3553
H	    1.2498	   -2.5534	   -1.3621
H	    2.7222	   -0.4347	   -2.2004
H	    3.6713	    0.8643	    0.0045
