40
XIRGIQ Cr total_charge=+0 EN=18 VN=4 CrL₄X₄
Cr	    1.6279	    0.4929	   -0.0000
C	    3.4018	   -0.0846	    0.0001
O	    4.5448	   -0.3368	    0.0001
C	    2.4710	    2.1590	   -0.0001
O	    3.1039	    3.1436	   -0.0002
C	    1.4541	    0.4508	   -1.8889
O	    1.3040	    0.4133	   -3.0415
C	    1.4539	    0.4518	    1.8889
O	    1.3038	    0.4151	    3.0415
C	   -0.3292	    1.1082	   -0.0002
O	   -0.9439	    2.2836	   -0.0003
C	    0.7412	   -1.3377	    0.0002
O	    1.1279	   -2.6066	    0.0003
S	   -1.8617	   -2.5568	    0.0004
C	   -0.7041	   -1.2491	    0.0002
C	   -1.2975	    0.0192	   -0.0000
C	   -2.7418	   -0.0443	   -0.0001
C	   -3.1935	   -1.4044	    0.0002
C	   -4.5605	   -1.7297	    0.0002
H	   -4.8903	   -2.7789	    0.0004
C	   -5.4894	   -0.6838	   -0.0001
H	   -6.5648	   -0.9166	   -0.0001
C	   -5.0644	    0.6649	   -0.0003
H	   -5.8162	    1.4681	   -0.0005
C	   -3.7072	    0.9912	   -0.0003
H	   -3.3714	    2.0358	   -0.0005
C	   -0.1960	    3.5189	   -0.0002
H	    0.4583	    3.5284	   -0.8952
H	    0.4584	    3.5283	    0.8947
C	   -1.1865	    4.6641	   -0.0002
H	   -1.8332	    4.6342	   -0.8996
H	   -0.6409	    5.6279	   -0.0001
H	   -1.8331	    4.6341	    0.8993
C	    2.5286	   -2.9584	    0.0001
H	    3.0003	   -2.5049	    0.8953
H	    3.0001	   -2.5046	   -0.8951
C	    2.6273	   -4.4690	   -0.0002
H	    2.1435	   -4.9004	   -0.8987
H	    2.1436	   -4.9007	    0.8982
H	    3.6925	   -4.7726	   -0.0004
