41
XIRHEN Cr total_charge=+0 EN=18 VN=4 CrL₄X₄
Cr	   -1.5402	    0.5315	    0.0457
C	   -3.3699	    0.1745	    0.0666
O	   -4.5367	    0.0681	    0.0590
C	   -2.1924	    2.2653	   -0.1286
O	   -2.7172	    3.3078	   -0.2363
C	   -1.3818	    0.6239	    1.9319
O	   -1.2432	    0.6612	    3.0868
C	   -1.3962	    0.2425	   -1.8193
O	   -1.2766	    0.0352	   -2.9585
C	    0.4637	    0.9324	   -0.0037
O	    1.1939	    2.0445	   -0.0450
C	   -0.8410	   -1.3939	    0.2211
O	   -1.3559	   -2.6092	    0.3778
S	    1.5930	   -2.8943	    0.2153
C	    0.5918	   -1.4531	    0.1509
C	    1.3209	   -0.2476	    0.0233
C	    2.7244	   -0.5237	   -0.0247
C	    3.0249	   -1.9135	    0.0656
C	    4.4313	   -2.0812	   -0.0001
H	    5.0118	   -3.0080	    0.0389
C	    4.9459	   -0.7915	   -0.1297
H	    5.9891	   -0.4649	   -0.2146
N	    3.9288	    0.1463	   -0.1458
C	    4.1387	    1.5771	   -0.2790
H	    5.2231	    1.7649	   -0.3816
H	    3.7574	    2.1181	    0.6075
H	    3.6164	    1.9705	   -1.1717
C	    0.5622	    3.3423	   -0.0448
H	   -0.1126	    3.3997	    0.8327
H	   -0.0655	    3.4241	   -0.9547
C	    1.6440	    4.4018	   -0.0023
H	    1.1755	    5.4054	   -0.0011
H	    2.3107	    4.3387	   -0.8855
H	    2.2617	    4.3131	    0.9138
C	   -2.7825	   -2.8192	    0.4484
H	   -2.8935	   -3.7378	    1.0578
H	   -3.2380	   -1.9702	    0.9926
C	   -3.3780	   -2.9967	   -0.9362
H	   -4.4676	   -3.1797	   -0.8530
H	   -2.9141	   -3.8554	   -1.4605
H	   -3.2315	   -2.0864	   -1.5485
