64

Co	   -0.0000	   -0.4154	    0.2862
C	   -0.0001	    2.6047	   -1.0962
H	   -0.0001	    3.6007	   -1.5552
C	   -2.4775	    2.8433	   -1.1940
H	   -3.1239	    2.3053	   -1.9163
H	   -2.1803	    3.8091	   -1.6410
H	   -3.1130	    3.0463	   -0.3086
C	   -2.7579	    0.3950	   -0.0649
C	   -3.4239	   -0.3300	   -1.0864
C	    2.6906	    1.5059	    2.2091
H	    3.2091	    1.4522	    3.1858
H	    1.6435	    1.1576	    2.3244
H	    2.6225	    2.5777	    1.9227
C	    2.4773	    2.8433	   -1.1945
H	    3.1130	    3.0462	   -0.3092
H	    2.1801	    3.8091	   -1.6414
H	    3.1235	    2.3052	   -1.9169
C	   -1.2532	    2.0264	   -0.8253
C	   -4.7416	   -0.7676	   -0.8540
H	   -5.2623	   -1.3381	   -1.6397
C	    5.3915	   -0.4856	    0.3561
H	    6.4205	   -0.8376	    0.5245
C	   -4.7282	    0.2469	    1.3505
H	   -5.2386	    0.4748	    2.2998
C	   -1.2003	   -2.1859	    0.3355
H	   -2.1693	   -2.3528	   -0.1562
C	    0.0003	   -2.5487	   -0.3347
C	    0.0005	   -3.3323	   -1.6171
H	    0.8990	   -3.1112	   -2.2258
H	   -0.8968	   -3.1095	   -2.2271
H	   -0.0008	   -4.4258	   -1.4140
C	    3.4239	   -0.3299	   -1.0863
C	   -2.7193	   -0.6009	   -2.3896
H	   -3.2050	   -1.4214	   -2.9525
H	   -1.6525	   -0.8472	   -2.2128
H	   -2.7191	    0.2981	   -3.0436
C	    4.7280	    0.2472	    1.3506
H	    5.2384	    0.4752	    2.2999
N	   -1.4107	    0.8171	   -0.2683
C	   -5.3916	   -0.4859	    0.3559
H	   -6.4206	   -0.8380	    0.5243
C	    2.7578	    0.3952	   -0.0649
C	    1.2007	   -2.1860	    0.3359
H	    2.1699	   -2.3529	   -0.1556
C	    3.4096	    0.7018	    1.1577
N	    1.4106	    0.8172	   -0.2684
C	    2.7194	   -0.6009	   -2.3896
H	    2.7195	    0.2978	   -3.0438
H	    1.6526	   -0.8471	   -2.2128
H	    3.2051	   -1.4217	   -2.9522
C	    1.2023	   -1.5819	    1.6315
H	    2.1720	   -1.3115	    2.0713
C	    0.0000	   -1.3084	    2.3272
H	   -0.0001	   -0.9029	    3.3490
C	    1.2531	    2.0264	   -0.8254
C	   -1.2022	   -1.5818	    1.6311
H	   -2.1719	   -1.3116	    2.0708
C	   -3.4098	    0.7016	    1.1577
C	    4.7416	   -0.7674	   -0.8539
H	    5.2623	   -1.3380	   -1.6394
C	   -2.6909	    1.5056	    2.2092
H	   -1.6437	    1.1574	    2.3244
H	   -3.2093	    1.4517	    3.1859
H	   -2.6229	    2.5774	    1.9230
