53

Zr	   -0.0000	   -0.9127	    0.0000
Cl	   -1.6595	   -2.5335	   -0.7524
Cl	    1.6595	   -2.5334	    0.7526
P	   -0.1447	    1.2992	    1.6173
P	    0.1447	    1.2990	   -1.6176
C	   -1.7600	    0.6049	    1.1851
C	   -1.9888	   -0.6685	    1.7866
C	   -0.8237	   -1.1607	    2.4714
C	    0.2356	   -0.2160	    2.4599
H	    1.2131	   -0.4221	    2.9188
C	   -3.3059	   -1.3856	    1.8339
H	   -4.1347	   -0.7254	    1.5195
H	   -3.5062	   -1.7341	    2.8673
H	   -3.3073	   -2.2772	    1.1729
C	   -0.7831	   -2.4845	    3.1803
H	    0.2592	   -2.7938	    3.3801
H	   -1.2681	   -3.2801	    2.5818
H	   -1.3195	   -2.4204	    4.1516
C	   -2.7242	    1.3540	    0.3494
C	   -2.8564	    2.7535	    0.5019
H	   -2.2610	    3.2649	    1.2739
C	   -3.7351	    3.4861	   -0.3066
H	   -3.8240	    4.5743	   -0.1678
C	   -4.5012	    2.8362	   -1.2875
H	   -5.1910	    3.4119	   -1.9231
C	   -4.3766	    1.4479	   -1.4555
H	   -4.9636	    0.9303	   -2.2297
C	   -3.4969	    0.7124	   -0.6494
H	   -3.3764	   -0.3687	   -0.8142
C	    1.7600	    0.6048	   -1.1852
C	    1.9890	   -0.6687	   -1.7865
C	    0.8238	   -1.1611	   -2.4713
C	   -0.2354	   -0.2163	   -2.4600
H	   -1.2129	   -0.4226	   -2.9189
C	    3.3060	   -1.3857	   -1.8337
H	    3.5065	   -1.7342	   -2.8671
H	    3.3074	   -2.2774	   -1.1727
H	    4.1348	   -0.7256	   -1.5191
C	    0.7833	   -2.4849	   -3.1800
H	    1.2683	   -3.2804	   -2.5813
H	    1.3199	   -2.4209	   -4.1513
H	   -0.2589	   -2.7942	   -3.3798
C	    2.7241	    1.3540	   -0.3495
C	    3.4967	    0.7126	    0.6495
H	    3.3763	   -0.3684	    0.8145
C	    4.3764	    1.4482	    1.4555
H	    4.9633	    0.9308	    2.2299
C	    4.5010	    2.8366	    1.2874
H	    5.1907	    3.4123	    1.9230
C	    3.7350	    3.4862	    0.3063
H	    3.8238	    4.5744	    0.1673
C	    2.8564	    2.7535	   -0.5022
H	    2.2610	    3.2648	   -1.2743
