62

Y	    0.0584	    0.0304	   -0.3319
Cl	   -0.1358	   -1.6273	   -2.2742
O	    2.4450	   -0.4235	   -0.7186
O	   -2.3615	    0.0132	   -0.5758
C	    1.2756	   -1.3089	    1.6288
C	    0.8961	   -0.0447	    2.1671
H	    1.5777	    0.7831	    2.4070
C	   -0.5190	    0.0077	    2.3135
H	   -1.0792	    0.8421	    2.7513
C	   -1.0441	   -1.2711	    1.9372
C	   -2.3544	   -1.8254	    1.9606
H	   -3.1992	   -1.2289	    2.3404
C	   -2.5478	   -3.1317	    1.5273
H	   -3.5551	   -3.5753	    1.5624
C	   -1.4608	   -3.9155	    1.0377
H	   -1.6526	   -4.9401	    0.6853
C	   -0.1689	   -3.4073	    1.0062
H	    0.6626	   -4.0232	    0.6312
C	    0.0714	   -2.0857	    1.4771
C	    2.6695	   -1.7504	    1.2828
H	    3.2914	   -1.8871	    2.1958
H	    2.6377	   -2.7332	    0.7684
C	    3.3656	   -0.7357	    0.3778
H	    3.5360	    0.2109	    0.9345
C	    4.6511	   -1.2319	   -0.3055
H	    5.3832	   -0.4048	   -0.4045
H	    5.1354	   -2.0416	    0.2747
C	    4.1631	   -1.6780	   -1.6919
H	    3.6993	   -2.6847	   -1.6465
H	    4.9666	   -1.7025	   -2.4530
C	    3.0962	   -0.6346	   -1.9906
H	    3.5480	    0.3238	   -2.3370
H	    2.3134	   -0.9590	   -2.7026
C	   -1.1104	    2.4403	   -0.7775
C	   -0.4208	    2.0729	   -1.9696
H	   -0.9098	    1.7777	   -2.9081
C	    0.9804	    2.0928	   -1.7474
H	    1.7543	    1.8833	   -2.4945
C	    1.1976	    2.5375	   -0.4004
C	    2.3769	    2.8033	    0.3531
H	    3.3666	    2.6522	   -0.1059
C	    2.2626	    3.2944	    1.6489
H	    3.1695	    3.5222	    2.2297
C	    0.9827	    3.5249	    2.2381
H	    0.9276	    3.9245	    3.2620
C	   -0.1882	    3.2583	    1.5388
H	   -1.1692	    3.4505	    2.0014
C	   -0.1101	    2.7589	    0.2074
C	   -2.6014	    2.4281	   -0.6010
H	   -2.9429	    3.2734	    0.0340
H	   -3.0894	    2.5502	   -1.5905
C	   -3.0922	    1.1142	    0.0379
H	   -2.8314	    1.1104	    1.1172
C	   -4.5716	    0.7829	   -0.1981
H	   -4.9701	    0.1830	    0.6452
H	   -5.1898	    1.6976	   -0.2885
C	   -4.5294	   -0.0645	   -1.4785
H	   -4.4315	    0.5815	   -2.3755
H	   -5.4283	   -0.6967	   -1.6124
C	   -3.2644	   -0.8877	   -1.2706
H	   -3.4397	   -1.7725	   -0.6227
H	   -2.7502	   -1.2164	   -2.1925
