41

Cr	   -2.5116	    0.1079	    0.1018
C	    1.5482	   -0.4062	   -0.5161
C	    2.4536	   -1.4627	   -0.2240
C	    3.8055	   -1.1576	    0.0560
H	    4.4932	   -1.9842	    0.2828
C	    4.2597	    0.1707	    0.0462
C	    3.3773	    1.2391	   -0.2555
C	    2.0432	    0.9099	   -0.5282
H	    1.3489	    1.7289	   -0.7657
C	    0.0821	   -0.7412	   -0.7662
H	    0.0462	   -1.6062	   -1.4653
C	   -0.6679	   -1.1935	    0.4814
H	   -0.7427	   -2.2775	    0.6545
C	   -0.9609	   -0.3931	    1.5911
H	   -1.2134	   -0.9158	    2.5279
C	   -1.1843	    1.0233	    1.6162
H	   -1.4598	    1.4513	    2.5923
C	   -1.2848	    1.8955	    0.5080
H	   -1.6278	    2.9186	    0.7247
C	   -1.1557	    1.5498	   -0.8797
H	   -1.5456	    2.3032	   -1.5830
C	   -0.7727	    0.3210	   -1.4264
H	   -0.9333	    0.2197	   -2.5108
C	    6.4868	   -0.4747	    0.6232
H	    7.4507	    0.0358	    0.8066
H	    6.6163	   -1.1977	   -0.2142
H	    6.1992	   -1.0414	    1.5378
C	    3.8864	    2.6546	   -0.2722
H	    4.7030	    2.7859	   -1.0131
H	    4.3157	    2.9443	    0.7101
H	    3.0751	    3.3659	   -0.5200
C	   -3.8944	    1.1050	   -0.5746
C	   -2.9731	   -1.3166	   -0.9707
C	   -3.7435	   -0.3900	    1.3619
N	    2.0178	   -2.7867	   -0.1501
H	    1.2125	   -3.0250	   -0.7322
H	    2.7559	   -3.4886	   -0.2241
O	    5.5495	    0.5341	    0.3106
O	   -4.8054	    1.7181	   -0.9756
O	   -3.2298	   -2.2268	   -1.6559
O	   -4.5611	   -0.6877	    2.1430
