63

Y	    0.2448	    0.1116	   -0.2421
C	    0.6933	   -2.3876	   -0.1396
C	    1.0996	   -2.0460	   -1.4985
C	    0.1849	   -1.4657	   -2.3643
C	   -1.1810	   -1.2261	   -1.9171
Si	   -3.2227	    2.0905	    0.0659
Si	    4.1598	    0.0749	    0.4621
C	    2.3651	    0.7934	   -1.8026
H	    2.7308	    0.0212	   -2.4890
C	    1.3785	    1.7681	   -2.1091
H	    0.8543	    1.8825	   -3.0677
C	    1.2278	    2.6084	   -0.9599
H	    0.5386	    3.4585	   -0.8763
C	    2.0981	    2.1358	    0.0461
H	    2.1971	    2.5584	    1.0546
C	    2.8007	    0.9755	   -0.4446
C	    4.6311	   -1.5473	   -0.4040
H	    3.8210	   -2.2972	   -0.3080
H	    5.5513	   -1.9741	    0.0473
H	    4.8244	   -1.3885	   -1.4850
C	    3.6507	   -0.3141	    2.2493
H	    3.4192	    0.6161	    2.8083
H	    4.4544	   -0.8510	    2.7960
H	    2.7356	   -0.9419	    2.2479
C	    5.7177	    1.1733	    0.5275
H	    5.4864	    2.1429	    1.0156
H	    6.0810	    1.3960	   -0.4972
H	    6.5435	    0.6902	    1.0920
C	   -0.7125	    1.8758	    1.5988
H	   -0.4302	    2.9284	    1.4642
C	    0.0171	    0.9177	    2.3487
H	    0.9511	    1.0970	    2.8974
C	   -0.6831	   -0.3258	    2.2680
H	   -0.3858	   -1.2755	    2.7311
C	   -1.8398	   -0.1248	    1.4748
H	   -2.5764	   -0.8974	    1.2247
C	   -1.8653	    1.2409	    1.0210
C	   -4.3126	    3.1030	    1.2609
H	   -3.7015	    3.8519	    1.8063
H	   -4.7760	    2.4369	    2.0181
H	   -5.1255	    3.6410	    0.7280
C	   -4.3242	    0.8403	   -0.8317
H	   -4.7233	    0.0777	   -0.1329
H	   -3.7317	    0.3061	   -1.6002
H	   -5.1800	    1.3452	   -1.3270
C	   -2.5053	    3.3024	   -1.2119
H	   -1.8691	    4.0694	   -0.7236
H	   -3.3095	    3.8295	   -1.7674
H	   -1.8732	    2.7534	   -1.9400
H	    1.4136	   -2.9229	    0.4998
H	    2.1484	   -2.1703	   -1.8054
H	    0.5079	   -1.1125	   -3.3570
H	   -1.9084	   -0.8651	   -2.6612
C	   -1.6794	   -2.1913	   -0.9184
C	   -3.0387	   -2.5543	   -0.7953
H	   -3.7604	   -2.1432	   -1.5192
C	   -3.4931	   -3.3830	    0.2507
H	   -4.5671	   -3.6124	    0.3429
C	   -2.5729	   -3.9077	    1.1694
H	   -2.9150	   -4.5505	    1.9967
C	   -1.2015	   -3.6176	    1.0257
H	   -0.4723	   -4.0475	    1.7329
C	   -0.7253	   -2.7634	    0.0068
