44

Zr	   -0.3747	   -1.0201	    0.1486
Cl	    1.4650	   -2.0919	    1.3019
Cl	   -1.6663	   -0.4952	    2.1393
P	    1.2575	    0.1800	   -1.8597
P	    0.6779	    1.7301	    0.7660
P	   -0.7568	    0.9648	   -1.8772
C	    1.7873	    0.8419	   -0.2952
C	   -0.7639	    1.7390	   -0.2849
C	    3.2809	    0.7710	    0.0814
C	    3.9047	    2.0634	   -0.5108
H	    4.9900	    2.0914	   -0.2807
H	    3.4334	    2.9697	   -0.0797
H	    3.7797	    2.1008	   -1.6118
C	    3.9873	   -0.4465	   -0.5463
H	    5.0640	   -0.4288	   -0.2821
H	    3.9151	   -0.4342	   -1.6533
H	    3.5513	   -1.3938	   -0.1767
C	    3.4983	    0.7708	    1.6083
H	    4.5849	    0.7431	    1.8284
H	    3.0211	   -0.1101	    2.0775
H	    3.0840	    1.6849	    2.0796
C	   -2.0016	    2.5731	    0.1157
C	   -1.9660	    2.9943	    1.5977
H	   -1.9321	    2.1128	    2.2663
H	   -2.8753	    3.5819	    1.8382
H	   -1.0857	    3.6317	    1.8180
C	   -3.3109	    1.8062	   -0.1665
H	   -3.3694	    0.8923	    0.4563
H	   -3.3868	    1.5141	   -1.2342
H	   -4.1841	    2.4471	    0.0710
C	   -1.9635	    3.8506	   -0.7614
H	   -2.0415	    3.6010	   -1.8392
H	   -1.0196	    4.4113	   -0.6065
H	   -2.8102	    4.5163	   -0.4947
C	   -0.9878	   -2.3621	   -1.9056
H	   -0.5767	   -2.0720	   -2.8795
C	   -2.2177	   -1.8971	   -1.3374
H	   -2.9148	   -1.1896	   -1.8007
C	   -2.3885	   -2.5418	   -0.0797
H	   -3.2231	   -2.3884	    0.6127
C	   -1.2581	   -3.3740	    0.1496
H	   -1.0664	   -3.9685	    1.0502
C	   -0.3962	   -3.2686	   -0.9865
H	    0.5685	   -3.7742	   -1.1099
