45

Zr	    0.0000	   -0.0007	   -0.2149
Cl	    0.0294	    1.8324	   -1.8214
Cl	   -0.0291	   -1.8374	   -1.8170
P	   -1.5476	    0.5014	    2.0190
P	    1.5485	   -0.5015	    2.0189
C	   -2.1632	    1.3187	    0.5583
C	   -2.5946	    0.4003	   -0.4454
C	   -2.4380	   -0.9698	   -0.0378
C	   -1.7999	   -1.0945	    1.2282
C	   -1.5042	   -2.4104	    1.8973
C	   -2.9914	   -2.1345	   -0.8037
C	   -3.2368	    0.8299	   -1.7328
C	   -2.2997	    2.8108	    0.4482
C	    2.1651	   -1.3175	    0.5578
C	    2.5942	   -0.3982	   -0.4460
C	    2.4365	    0.9715	   -0.0375
C	    1.7989	    1.0951	    1.2287
C	    1.5028	    2.4105	    1.8986
C	    2.9891	    2.1369	   -0.8032
C	    3.2351	   -0.8250	   -1.7351
C	    2.3035	   -2.8095	    0.4481
H	   -0.9948	   -3.1166	    1.2083
H	   -2.4420	   -2.9009	    2.2358
H	   -0.8545	   -2.2738	    2.7830
H	   -2.9436	   -1.9760	   -1.8967
H	   -2.4480	   -3.0705	   -0.5802
H	   -4.0575	   -2.2826	   -0.5240
H	   -2.7665	    1.7533	   -2.1207
H	   -3.1449	    0.0540	   -2.5158
H	   -4.3189	    1.0338	   -1.5809
H	   -3.3724	    3.0989	    0.4752
H	   -1.8723	    3.1920	   -0.5009
H	   -1.7932	    3.3277	    1.2867
H	    0.8527	    2.2733	    2.7839
H	    2.4404	    2.9006	    2.2378
H	    0.9937	    3.1173	    1.2099
H	    2.4438	    3.0721	   -0.5810
H	    2.9434	    1.9776	   -1.8961
H	    4.0544	    2.2868	   -0.5218
H	    2.7782	   -1.7583	   -2.1147
H	    4.3216	   -1.0092	   -1.5895
H	    3.1248	   -0.0552	   -2.5219
H	    1.7971	   -3.3267	    1.2865
H	    1.8769	   -3.1917	   -0.5010
H	    3.3765	   -3.0964	    0.4759
