58

Y	   -0.0650	    0.1026	    0.5026
O	   -0.9561	    2.5203	    0.4425
O	    0.2864	   -2.2072	    1.4098
C	    1.8056	    1.5169	    1.6869
C	    2.3308	    0.1981	    1.7284
C	    2.7612	   -0.1432	    0.4025
C	    3.4102	   -1.2879	   -0.1398
C	    3.8058	   -1.2749	   -1.4729
C	    3.5569	   -0.1411	   -2.3043
C	    2.8851	    0.9742	   -1.8172
C	    2.4655	    0.9919	   -0.4582
C	    1.8126	    1.9930	    0.3418
C	    1.2567	    3.3000	   -0.1469
C	   -0.0577	    3.6370	    0.5377
C	   -2.2731	    2.8914	    0.8658
C	    0.2004	   -0.9028	   -1.8965
C	   -0.5087	    0.3131	   -2.0991
C	   -1.8559	    0.1056	   -1.6435
C	   -3.0207	    0.9202	   -1.6698
C	   -4.2177	    0.4133	   -1.1741
C	   -4.2947	   -0.9024	   -0.6345
C	   -3.1741	   -1.7234	   -0.5878
C	   -1.9354	   -1.2393	   -1.0915
C	   -0.6307	   -1.8404	   -1.2255
C	   -0.2080	   -3.1970	   -0.7407
C	   -0.3446	   -3.3346	    0.7696
C	    0.5037	   -2.4707	    2.7993
B	   -1.7755	    0.0455	    2.5776
H	    1.4086	    2.0612	    2.5547
H	    2.4875	   -0.4045	    2.6295
H	    3.6255	   -2.1554	    0.5030
H	    4.3316	   -2.1445	   -1.8955
H	    3.9010	   -0.1571	   -3.3495
H	    2.6980	    1.8414	   -2.4692
H	    1.9588	    4.1464	    0.0298
H	    1.0974	    3.2526	   -1.2442
H	   -0.5356	    4.5243	    0.0640
H	    0.0978	    3.8813	    1.6151
H	   -2.2606	    3.2238	    1.9258
H	   -2.6573	    3.7108	    0.2190
H	   -2.9218	    2.0069	    0.7725
H	    1.2479	   -1.0852	   -2.1669
H	   -0.1295	    1.2056	   -2.6114
H	   -2.9729	    1.9333	   -2.0981
H	   -5.1264	    1.0341	   -1.2042
H	   -5.2583	   -1.2722	   -0.2537
H	   -3.2521	   -2.7420	   -0.1785
H	   -0.8136	   -4.0057	   -1.2078
H	    0.8477	   -3.3740	   -1.0307
H	   -1.4103	   -3.3643	    1.0909
H	    0.1460	   -4.2668	    1.1297
H	    1.2600	   -3.2784	    2.9137
H	    0.8650	   -1.5433	    3.2712
H	   -0.4458	   -2.7616	    3.2941
H	   -2.0954	    0.0566	    1.3615
H	   -0.5576	    0.3411	    2.6949
H	   -2.4327	    0.9104	    3.1484
H	   -1.9724	   -1.0902	    3.0060
