67

La	   -0.0005	   -0.0011	   -0.5812
N	    2.1167	    1.5223	   -1.4085
N	   -2.3784	    1.0719	   -1.4072
N	    0.2613	   -2.6000	   -1.4006
C	    0.9937	    2.4012	   -1.1619
H	    0.7387	    3.1364	   -1.9494
C	    0.5779	    2.6625	    0.1780
C	    1.0096	    1.8692	    1.3064
H	    1.8904	    1.2102	    1.2318
C	    0.4153	    2.0290	    2.5800
H	    0.7943	    1.4101	    3.4076
C	   -0.6104	    2.9490	    2.7929
H	   -1.0675	    3.0674	    3.7859
C	   -1.0334	    3.7543	    1.7021
H	   -1.8278	    4.5022	    1.8550
C	   -0.4610	    3.6240	    0.4449
H	   -0.8025	    4.2644	   -0.3841
C	    3.4223	    1.9733	   -0.9108
H	    3.7926	    2.8586	   -1.4818
H	    4.1627	    1.1522	   -0.9920
H	    3.3416	    2.2576	    0.1545
C	    2.2005	    1.1326	   -2.8089
H	    2.4118	    2.0034	   -3.4808
H	    1.2351	    0.6987	   -3.1552
H	    2.9913	    0.3711	   -2.9532
C	   -2.5776	   -0.3404	   -1.1623
H	   -3.0837	   -0.9289	   -1.9518
C	   -2.5963	   -0.8312	    0.1771
C	   -2.1275	   -0.0588	    1.3050
H	   -1.9973	    1.0333	    1.2285
C	   -1.9717	   -0.6509	    2.5799
H	   -1.6275	   -0.0117	    3.4073
C	   -2.2550	   -1.9991	    2.7944
H	   -2.1310	   -2.4524	    3.7884
C	   -2.7365	   -2.7706	    1.7033
H	   -2.9858	   -3.8327	    1.8570
C	   -2.9075	   -2.2120	    0.4448
H	   -3.2881	   -2.8298	   -0.3843
C	   -3.4223	    1.9756	   -0.9078
H	   -4.3744	    1.8537	   -1.4785
H	   -3.0823	    3.0278	   -0.9876
H	   -3.6274	    1.7619	    0.1573
C	   -2.0813	    1.3421	   -2.8067
H	   -2.9403	    1.0912	   -3.4801
H	   -1.2222	    0.7238	   -3.1528
H	   -1.8168	    2.4080	   -2.9481
C	    1.5837	   -2.0643	   -1.1575
H	    2.3466	   -2.2118	   -1.9461
C	    2.0197	   -1.8318	    0.1813
C	    1.1185	   -1.8072	    1.3108
H	    0.1075	   -2.2404	    1.2376
C	    1.5551	   -1.3690	    2.5826
H	    0.8305	   -1.3861	    3.4111
C	    2.8646	   -0.9388	    2.7930
H	    3.1967	   -0.5995	    3.7847
C	    3.7718	   -0.9757	    1.7008
H	    4.8163	   -0.6592	    1.8513
C	    3.3714	   -1.4094	    0.4450
H	    4.0953	   -1.4335	   -0.3852
C	   -0.1223	   -2.4806	   -2.8001
H	    0.5246	   -3.0995	   -3.4730
H	   -0.0177	   -1.4280	   -3.1484
H	   -1.1774	   -2.7857	   -2.9403
C	    0.0033	   -3.9558	   -0.8994
H	    0.5856	   -4.7189	   -1.4699
H	   -1.0776	   -4.1894	   -0.9777
H	    0.2923	   -4.0248	    0.1656
