29

Ti	   -1.1945	   -0.6027	    0.0914
P	   -0.0634	    0.1090	   -2.1524
Cl	   -3.2666	   -1.2337	   -0.3668
Cl	   -1.2885	   -0.1771	    2.2904
Cl	   -0.0052	   -2.4636	   -0.0036
C	    0.7179	    0.7546	   -0.6584
C	   -0.1269	    1.6412	    0.0720
C	   -1.4484	    1.7206	   -0.5009
C	   -1.5518	    0.9646	   -1.6936
H	   -2.4939	    0.8731	   -2.2517
C	   -2.5666	    2.5176	    0.1058
H	   -2.4257	    3.6016	   -0.0936
H	   -2.6070	    2.3821	    1.2043
H	   -3.5429	    2.2153	   -0.3168
C	    0.2950	    2.4877	    1.2357
H	    1.3884	    2.4447	    1.3894
H	   -0.1996	    2.1627	    2.1740
H	    0.0048	    3.5426	    1.0536
C	    2.0968	    0.3801	   -0.2811
C	    3.1172	    0.3663	   -1.2583
H	    2.8728	    0.6521	   -2.2931
C	    4.4292	    0.0094	   -0.9188
H	    5.2120	    0.0095	   -1.6922
C	    4.7429	   -0.3463	    0.4022
H	    5.7724	   -0.6296	    0.6688
C	    3.7347	   -0.3497	    1.3802
H	    3.9687	   -0.6473	    2.4135
C	    2.4228	    0.0071	    1.0445
H	    1.6283	   -0.0387	    1.8041
