33

Ti	    0.0297	   -0.2051	    0.1930
Cl	   -0.0441	    2.0678	    0.7329
Cl	    0.2580	   -0.9179	    2.3676
P	    1.4398	   -1.8473	   -1.3369
P	   -1.6066	   -2.1233	   -0.4315
C	    1.3796	   -0.1264	   -1.8347
C	    2.0495	    0.7545	   -0.9559
C	    2.4858	    0.0767	    0.2367
C	    2.2174	   -1.3144	    0.1637
C	    2.3474	    2.1883	   -1.2666
C	    3.1600	    0.7547	    1.3913
C	   -2.2966	   -1.0125	    0.7840
C	   -2.5302	    0.2936	    0.3263
C	   -2.0975	    0.4579	   -1.0499
C	   -1.5777	   -0.7393	   -1.5746
C	   -3.1859	    1.3785	    1.1200
C	   -2.2516	    1.7403	   -1.8106
H	    0.9438	    0.2208	   -2.7825
H	    3.3968	    2.2712	   -1.6235
H	    1.6828	    2.5772	   -2.0608
H	    2.2340	    2.8330	   -0.3752
H	    4.2243	    0.9680	    1.1548
H	    3.1205	    0.1187	    2.2946
H	    2.6608	    1.7151	    1.6274
H	    2.4359	   -1.9966	    0.9959
H	   -2.4892	   -1.3139	    1.8224
H	   -4.1555	    1.6620	    0.6582
H	   -3.3758	    1.0545	    2.1600
H	   -2.5440	    2.2830	    1.1475
H	   -3.3276	    1.9779	   -1.9505
H	   -1.7920	    2.5815	   -1.2540
H	   -1.7826	    1.6777	   -2.8108
H	   -1.2202	   -0.8198	   -2.6102
