41
CEFTEM charge=+0 Co bent NO ~122°
Co	   -0.0040	    0.0415	   -0.1179
O	   -1.4648	    1.1858	   -0.4099
N	   -1.0996	   -1.4885	   -0.3912
C	   -2.7375	    0.9199	   -0.1488
N	    1.0929	    1.6244	   -0.2481
C	   -3.2502	   -0.4211	   -0.0949
C	    2.4050	    1.7156	   -0.2517
O	    1.4533	   -1.0409	   -0.5924
C	    2.7194	   -0.8059	   -0.2671
C	   -4.9733	    1.7984	    0.3383
C	    3.5998	   -1.9113	   -0.1536
O	    0.4195	    2.7986	   -0.3923
C	    4.9425	   -1.7356	    0.1804
O	   -0.4293	   -2.6524	   -0.6218
C	   -2.4140	   -1.5872	   -0.3824
N	    0.0921	   -0.0929	    1.6519
C	    4.6020	    0.6582	    0.2779
C	    3.2322	    0.5210	   -0.0669
C	   -3.0107	   -2.9397	   -0.6584
O	    0.0868	   -1.1331	    2.2087
C	   -3.6246	    2.0078	    0.0507
C	   -4.6261	   -0.5929	    0.2088
C	   -5.4799	    0.4883	    0.4307
C	    3.0146	    3.0790	   -0.4287
C	    5.4496	   -0.4424	    0.4099
H	   -3.2086	    3.0241	   -0.0145
H	   -5.6348	    2.6627	    0.5030
H	   -6.5375	    0.3130	    0.6747
H	   -5.0314	   -1.6112	    0.2868
H	    3.1842	   -2.9149	   -0.3271
H	    5.5993	   -2.6141	    0.2732
H	    6.5024	   -0.2958	    0.6907
H	    5.0058	    1.6635	    0.4625
H	   -0.5403	    2.4617	   -0.4137
H	    0.5295	   -2.3138	   -0.6560
H	   -2.4371	   -3.4375	   -1.4628
H	   -2.9244	   -3.5943	    0.2348
H	   -4.0713	   -2.8712	   -0.9515
H	    2.4300	    3.6475	   -1.1763
H	    2.9580	    3.6593	    0.5168
H	    4.0678	    3.0210	   -0.7503
