51
ELALIM charge=+0 Pd bent NO ~118°
Pd	   -0.0939	    0.3519	   -0.3233
N	   -0.4316	    1.1442	   -2.1326
N	    1.7128	    1.5736	   -0.1751
N	    2.8393	    1.0150	    0.3230
N	    0.5541	   -0.4892	    1.6644
N	    1.8658	   -0.7573	    1.8469
N	    1.2856	   -1.1672	   -1.1350
N	    2.4858	   -1.3293	   -0.5303
O	   -0.6497	    0.4075	   -3.0263
B	    2.8821	   -0.4864	    0.7127
H	    4.0076	   -0.7879	    1.0761
C	   -1.3236	    1.7594	    0.5638
H	   -1.0592	    1.6594	    1.6352
H	   -0.9996	    2.7568	    0.2021
C	   -2.8267	    1.4958	    0.3258
C	   -3.3157	    2.2072	   -0.9549
H	   -3.1904	    3.3065	   -0.8652
H	   -4.3887	    1.9929	   -1.1350
H	   -2.7561	    1.8715	   -1.8487
C	   -3.6296	    2.0293	    1.5297
H	   -3.4208	    3.1079	    1.6852
H	   -3.3621	    1.4884	    2.4599
H	   -4.7230	    1.9230	    1.3733
C	   -2.9745	   -0.0081	    0.1452
C	   -1.8081	   -0.7146	   -0.2320
C	   -1.8514	   -2.1034	   -0.4334
H	   -0.9383	   -2.6586	   -0.6928
C	   -3.0681	   -2.7938	   -0.2864
H	   -3.1001	   -3.8828	   -0.4476
C	   -4.2331	   -2.0992	    0.0751
H	   -5.1841	   -2.6406	    0.1954
C	   -4.1839	   -0.7136	    0.2936
H	   -5.0990	   -0.1746	    0.5871
C	    1.9805	    2.8611	   -0.4489
H	    1.2019	    3.5029	   -0.8782
C	    3.3207	    3.1518	   -0.1157
H	    3.8477	    4.1052	   -0.2185
C	    3.8295	    1.9450	    0.3714
H	    4.8230	    1.6775	    0.7466
C	   -0.1010	   -0.8896	    2.7654
H	   -1.1909	   -0.7797	    2.8217
C	    0.8135	   -1.4289	    3.6975
H	    0.6005	   -1.8387	    4.6897
C	    2.0565	   -1.3270	    3.0678
H	    3.0604	   -1.6181	    3.3954
C	    1.2426	   -2.0066	   -2.1839
H	    0.3537	   -2.0340	   -2.8251
C	    2.4469	   -2.7386	   -2.2624
H	    2.7240	   -3.4996	   -2.9984
C	    3.2096	   -2.2731	   -1.1885
H	    4.2138	   -2.5417	   -0.8437
