31
FOHWII charge=+0 Co bent NO ~121°
Co	   -0.0537	    0.0000	   -0.0915
O	    1.0682	   -0.0000	    2.2441
O	   -1.3433	    1.3944	   -0.2485
O	   -1.3432	   -1.3944	   -0.2486
O	    1.2043	    1.3892	   -0.3472
O	    1.2044	   -1.3892	   -0.3469
N	    0.0312	    0.0002	    1.6806
C	   -2.6114	    1.2409	   -0.1570
C	   -3.2758	   -0.0001	   -0.0508
C	   -2.6113	   -1.2410	   -0.1574
C	    2.4766	    1.2406	   -0.3062
C	    3.1451	    0.0000	   -0.2250
C	    2.4767	   -1.2406	   -0.3059
C	   -3.4073	    2.5258	   -0.1950
C	   -3.4071	   -2.5259	   -0.1959
C	    3.2654	    2.5274	   -0.3709
C	    3.2655	   -2.5274	   -0.3701
H	   -4.3707	   -0.0001	    0.0275
H	    4.2418	    0.0001	   -0.1822
H	   -4.4966	    2.3527	   -0.1296
H	   -3.1775	    3.0731	   -1.1316
H	   -3.0868	    3.1799	    0.6413
H	   -3.0882	   -3.1794	    0.6415
H	   -3.1756	   -3.0738	   -1.1318
H	   -4.4966	   -2.3528	   -0.1325
H	    2.9713	    3.0951	   -1.2767
H	    4.3567	    2.3553	   -0.3824
H	    3.0024	    3.1609	    0.5008
H	    4.3568	   -2.3552	   -0.3824
H	    3.0032	   -3.1601	    0.5024
H	    2.9707	   -3.0959	   -1.2751
