56
ILEJEO charge=+0 Pt bent NO ~121°
Pt	   -0.1534	   -0.2124	   -0.2634
N	   -0.1527	   -0.1588	   -2.2816
O	    0.4479	   -0.9375	   -2.8948
C	   -2.0246	   -1.1127	    0.0678
C	   -2.8009	   -1.7745	   -0.8863
C	   -4.0687	   -2.3053	   -0.5917
C	   -4.5783	   -2.1760	    0.7118
C	   -3.8191	   -1.5244	    1.7008
C	   -2.5601	   -1.0072	    1.3562
F	   -2.3401	   -1.9398	   -2.1494
F	   -4.7867	   -2.9370	   -1.5272
F	   -5.7776	   -2.6802	    1.0140
F	   -4.3012	   -1.4101	    2.9429
F	   -1.8393	   -0.3959	    2.3245
C	    1.7281	    0.6977	   -0.0682
C	    2.4549	    0.4702	    1.1045
C	    3.7778	    0.8957	    1.2794
C	    4.3947	    1.6289	    0.2512
C	    3.6847	    1.9104	   -0.9274
C	    2.3602	    1.4550	   -1.0593
F	    1.8926	   -0.2467	    2.1101
F	    4.4588	    0.6028	    2.3941
F	    5.6571	    2.0454	    0.3905
F	    4.2723	    2.6100	   -1.9059
F	    1.7277	    1.7391	   -2.2194
C	   -1.1293	    1.6292	   -0.1236
C	   -2.1306	    2.0376	   -1.0149
C	   -2.8073	    3.2621	   -0.8772
C	   -2.4943	    4.1039	    0.2025
C	   -1.5130	    3.7126	    1.1276
C	   -0.8542	    2.4836	    0.9527
F	   -2.4940	    1.2571	   -2.0525
F	   -3.7518	    3.6258	   -1.7533
F	   -3.1329	    5.2681	    0.3528
F	   -1.2253	    4.5036	    2.1683
F	    0.0503	    2.1387	    1.8915
P	    0.8499	   -2.3917	    0.0068
C	    2.6788	   -2.3903	    0.0223
C	    3.3490	   -1.9251	   -1.1302
H	    2.7784	   -1.6582	   -2.0330
C	    4.7397	   -1.7619	   -1.1202
H	    5.2514	   -1.3870	   -2.0191
C	    5.4740	   -2.0533	    0.0417
H	    6.5641	   -1.9051	    0.0556
C	    4.8141	   -2.5222	    1.1870
H	    5.3841	   -2.7446	    2.1011
C	    3.4210	   -2.6919	    1.1806
H	    2.9173	   -3.0306	    2.0965
C	    0.3041	   -3.1250	    1.5929
H	    0.5319	   -2.4242	    2.4173
H	   -0.7928	   -3.2616	    1.5381
H	    0.7925	   -4.1028	    1.7703
C	    0.3846	   -3.6465	   -1.2535
H	   -0.7116	   -3.6314	   -1.4014
H	    0.7172	   -4.6515	   -0.9283
H	    0.8696	   -3.3975	   -2.2156
