34
VIZZAG charge=+0 Co bent NO ~123°
Co	   -0.0005	   -0.5228	    0.0392
S	   -1.5941	   -1.6844	   -0.9360
S	    1.5908	   -1.6837	   -0.9400
O	   -0.0003	   -2.0600	    2.1414
N	   -1.3010	    1.0060	    0.2486
N	    1.3024	    1.0042	    0.2492
N	   -0.0005	   -0.9368	    1.7452
C	   -3.0361	   -0.6015	   -0.4988
H	   -3.4217	   -0.1094	   -1.4180
H	   -3.8653	   -1.2192	   -0.0967
C	   -2.6375	    0.4293	    0.5483
H	   -2.5483	   -0.0593	    1.5382
H	   -3.3946	    1.2480	    0.6294
C	   -0.7748	    1.8450	    1.3527
H	   -1.1247	    1.3788	    2.2913
H	   -1.1975	    2.8739	    1.3036
C	    0.7768	    1.8437	    1.3532
H	    1.2011	    2.8720	    1.3045
H	    1.1254	    1.3769	    2.2920
C	   -1.2857	    1.7213	   -1.0577
H	   -1.4064	    0.9450	   -1.8409
H	   -2.1572	    2.4162	   -1.1070
C	    0.0024	    2.5144	   -1.2797
H	    0.0029	    2.8822	   -2.3255
H	    0.0024	    3.4260	   -0.6460
C	    1.2896	    1.7202	   -1.0566
H	    2.1617	    2.4145	   -1.1043
H	    1.4105	    0.9441	   -1.8399
C	    2.6375	    0.4248	    0.5499
H	    2.5466	   -0.0640	    1.5394
H	    3.3962	    1.2420	    0.6321
C	    3.0354	   -0.6063	   -0.4974
H	    3.8614	   -1.2271	   -0.0938
H	    3.4248	   -0.1147	   -1.4152
