44
ALOBIM W total_charge=-1 EN=18 VN=1 WL₅X₁ heatmap_gray_cell
W	    1.8071	   -0.0781	   -0.2179
H	    1.6634	   -0.3024	   -2.0437
O	    1.8450	    2.9407	   -1.3092
O	    1.7256	   -3.2789	   -0.4434
O	    4.9916	   -0.1351	   -0.2943
O	    1.8111	    0.4385	    2.9378
P	   -0.6953	   -0.0239	   -0.0617
C	    1.8347	    1.8619	   -0.8480
C	    1.7601	   -2.1122	   -0.2936
C	    3.8149	   -0.1138	   -0.2817
C	    1.8350	    0.2313	    1.7738
C	   -1.4570	   -0.6944	    1.5012
C	   -2.5616	   -0.0939	    2.1390
H	   -3.0030	    0.8221	    1.7179
C	   -3.0949	   -0.6495	    3.3140
H	   -3.9532	   -0.1647	    3.8058
C	   -2.5342	   -1.8134	    3.8616
H	   -2.9493	   -2.2465	    4.7853
C	   -1.4321	   -2.4153	    3.2314
H	   -0.9776	   -3.3223	    3.6597
C	   -0.8918	   -1.8568	    2.0646
H	   -0.0093	   -2.3076	    1.5860
C	   -1.4339	    1.6782	   -0.1016
C	   -2.3948	    2.0919	   -1.0433
H	   -2.7804	    1.3728	   -1.7810
C	   -2.8571	    3.4194	   -1.0497
H	   -3.6013	    3.7327	   -1.7991
C	   -2.3736	    4.3413	   -0.1099
H	   -2.7359	    5.3814	   -0.1167
C	   -1.4141	    3.9329	    0.8334
H	   -1.0205	    4.6521	    1.5685
C	   -0.9399	    2.6152	    0.8333
H	   -0.1660	    2.3001	    1.5510
C	   -1.7234	   -0.9158	   -1.3380
C	   -1.1217	   -1.2026	   -2.5782
H	   -0.0622	   -0.9134	   -2.7146
C	   -1.8527	   -1.8558	   -3.5832
H	   -1.3714	   -2.0769	   -4.5490
C	   -3.1846	   -2.2378	   -3.3560
H	   -3.7546	   -2.7576	   -4.1427
C	   -3.7854	   -1.9652	   -2.1154
H	   -4.8268	   -2.2710	   -1.9263
C	   -3.0589	   -1.3085	   -1.1101
H	   -3.5320	   -1.1044	   -0.1374
