29
AMBZCW W total_charge=-1 EN=18 VN=1 WL₅X₁ heatmap_gray_cell
W	   -0.9990	   -0.1761	   -0.0399
O	   -3.6890	   -1.5944	   -1.0093
O	   -1.0634	   -1.2602	    2.9878
O	    0.7225	   -2.7842	   -0.8363
O	   -2.6851	    2.4459	    0.7966
O	   -0.2308	    1.0784	   -2.9104
O	    0.8283	    2.3842	    0.0486
C	   -2.6877	   -1.0882	   -0.6514
C	   -1.0926	   -0.8806	    1.8792
C	    0.1079	   -1.8330	   -0.5498
C	   -2.0718	    1.4999	    0.4894
C	   -0.5475	    0.6276	   -1.8807
C	    0.8855	    1.0897	    0.6699
C	    2.1476	    0.3538	    0.3757
C	    2.6410	   -0.6379	    1.2612
C	    3.7901	   -1.3773	    0.9600
C	    4.5020	   -1.1415	   -0.2310
C	    4.0338	   -0.1530	   -1.1131
C	    2.8788	    0.5839	   -0.8169
C	    1.6839	    3.3213	    0.6544
H	    1.5651	    4.2885	    0.1214
H	    1.4308	    3.4807	    1.7339
H	    2.7596	    3.0195	    0.6061
H	    0.7759	    1.2152	    1.7738
H	    2.0851	   -0.8386	    2.1921
H	    4.1397	   -2.1488	    1.6656
H	    5.4060	   -1.7241	   -0.4684
H	    4.5760	    0.0449	   -2.0527
H	    2.5043	    1.3475	   -1.5152
