48
BAKCEV W total_charge=+1 EN=16 VN=1 WL₅X₁ heatmap_gray_cell
W	   -0.2388	    0.4699	   -0.0011
P	    2.9615	   -1.2152	    0.0027
O	   -1.0783	    2.5545	    2.2416
O	   -1.0759	    2.5490	   -2.2498
N	    0.5730	   -0.9918	   -1.5079
N	    0.5714	   -0.9880	    1.5101
N	    1.9330	    1.4177	   -0.0010
C	   -0.7586	    1.7977	    1.4150
C	   -0.7572	    1.7942	   -1.4210
C	   -2.0364	    0.0551	   -0.0010
C	   -3.4584	   -0.0567	   -0.0006
C	   -4.2808	    1.1045	    0.0012
C	   -5.6721	    0.9762	    0.0017
C	   -6.2661	   -0.2991	    0.0004
C	   -5.4641	   -1.4538	   -0.0013
C	   -4.0704	   -1.3412	   -0.0018
C	   -0.2175	   -1.3380	   -2.5590
C	    0.1941	   -2.2226	   -3.5567
C	    1.4793	   -2.7804	   -3.4861
C	    2.2942	   -2.4356	   -2.4012
C	    1.8155	   -1.5435	   -1.4229
C	    1.8141	   -1.5397	    1.4280
C	    2.2921	   -2.4290	    2.4092
C	    1.4761	   -2.7709	    3.4943
C	    0.1906	   -2.2134	    3.5618
C	   -0.2202	   -1.3316	    2.5613
C	    3.0474	    0.6447	    0.0002
C	    4.3367	    1.2075	   -0.0003
C	    4.4798	    2.6022	   -0.0019
C	    3.3239	    3.3936	   -0.0031
C	    2.0748	    2.7640	   -0.0025
H	   -3.8073	    2.0973	    0.0022
H	   -6.3032	    1.8773	    0.0030
H	   -7.3623	   -0.3929	    0.0008
H	   -5.9327	   -2.4493	   -0.0023
H	   -3.4341	   -2.2388	   -0.0031
H	   -1.2129	   -0.8712	   -2.5787
H	   -0.4920	   -2.4617	   -4.3814
H	    1.8394	   -3.4738	   -4.2604
H	    3.3055	   -2.8544	   -2.2944
H	    3.3036	   -2.8478	    2.3047
H	    1.8356	   -3.4622	    4.2708
H	   -0.4963	   -2.4505	    4.3865
H	   -1.2158	   -0.8651	    2.5787
H	    5.2150	    0.5455	    0.0007
H	    5.4794	    3.0620	   -0.0023
H	    3.3783	    4.4914	   -0.0043
H	    1.1428	    3.3493	   -0.0034
