49
BAKFIC W total_charge=+1 EN=18 VN=3 WL₅X₃ heatmap_gray_cell
W	   -0.2200	   -0.5000	   -0.0009
O	   -1.0461	   -2.5810	    2.2482
O	   -1.0440	   -2.5772	   -2.2542
N	    0.6773	    0.9595	   -1.4576
N	    0.6757	    0.9572	    1.4591
N	    1.9927	   -1.3157	   -0.0006
C	   -0.7393	   -1.8258	    1.4149
C	   -0.7381	   -1.8234	   -1.4194
C	   -2.0122	   -0.0550	   -0.0008
C	   -3.4283	    0.1152	   -0.0004
C	   -4.2948	   -1.0134	    0.0018
C	   -5.6802	   -0.8316	    0.0021
C	   -6.2249	    0.4654	    0.0003
C	   -5.3787	    1.5882	   -0.0018
C	   -3.9904	    1.4220	   -0.0022
C	   -0.0248	    1.3471	   -2.5545
C	    0.4802	    2.2531	   -3.4864
C	    1.7662	    2.7813	   -3.2910
C	    2.4884	    2.3865	   -2.1593
C	    1.9165	    1.4766	   -1.2552
C	    2.6682	    1.0530	    0.0019
C	    1.9152	    1.4745	    1.2588
C	    2.4863	    2.3828	    2.1651
C	    1.7630	    2.7759	    3.2967
C	    0.4767	    2.2474	    3.4899
C	   -0.0275	    1.3431	    2.5559
C	    3.0171	   -0.4321	    0.0007
C	    4.3548	   -0.8588	    0.0010
C	    4.6356	   -2.2313	   -0.0001
C	    3.5680	   -3.1407	   -0.0015
C	    2.2630	   -2.6416	   -0.0017
H	   -3.8596	   -2.0235	    0.0033
H	   -6.3454	   -1.7079	    0.0038
H	   -7.3167	    0.6015	    0.0006
H	   -5.8085	    2.6010	   -0.0032
H	   -3.3202	    2.2945	   -0.0039
H	   -1.0224	    0.8974	   -2.6633
H	   -0.1297	    2.5330	   -4.3566
H	    2.1995	    3.4918	   -4.0103
H	    3.4964	    2.7817	   -1.9680
H	    3.6244	    1.6047	    0.0028
H	    3.4945	    2.7782	    1.9754
H	    2.1956	    3.4850	    4.0176
H	   -0.1341	    2.5260	    4.3598
H	   -1.0252	    0.8933	    2.6628
H	    5.1668	   -0.1174	    0.0021
H	    5.6768	   -2.5865	    0.0000
H	    3.7378	   -4.2265	   -0.0024
H	    1.3908	   -3.3131	   -0.0027
