35
BENQOC W total_charge=-1 EN=18 VN=1 WL₅X₁ heatmap_gray_cell
C	   -0.7153	    1.1110	   -1.3845
C	   -1.9983	    1.4014	    1.2508
C	   -2.8486	   -1.3640	    1.1334
C	   -1.5751	   -1.6643	   -1.4616
C	   -3.5475	    0.4669	   -1.0403
C	    1.7982	    1.3952	    0.8499
C	    1.2494	    2.6896	    0.9683
H	    0.3984	    2.8269	    1.6492
C	    1.7828	    3.7604	    0.2414
H	    1.3345	    4.7618	    0.3379
C	    2.8778	    3.5535	   -0.6140
H	    3.2927	    4.3875	   -1.2007
C	    3.4343	    2.2725	   -0.7260
H	    4.2841	    2.0993	   -1.4049
C	    2.9135	    1.1731	   -0.0104
C	    3.5377	   -0.1657	   -0.1084
C	    4.9407	   -0.3228	   -0.0905
H	    5.5672	    0.5757	    0.0249
C	    5.5386	   -1.5872	   -0.1813
H	    6.6353	   -1.6810	   -0.1517
C	    4.7298	   -2.7321	   -0.2897
H	    5.1885	   -3.7320	   -0.3469
C	    3.3357	   -2.6033	   -0.3198
H	    2.6723	   -3.4752	   -0.4094
C	    2.7344	   -1.3312	   -0.2494
O	   -0.1007	    1.7813	   -2.1108
O	   -2.0893	    2.2481	    2.0502
O	   -3.4234	   -2.0783	    1.8513
O	   -1.4331	   -2.5531	   -2.2004
O	   -4.5384	    0.7972	   -1.5731
O	    1.3026	    0.3919	    1.6178
O	    1.3882	   -1.2198	   -0.3987
O	    0.4126	   -2.0106	    1.9689
P	    0.3323	   -0.8985	    0.9537
W	   -1.8329	   -0.1008	   -0.1386
