47
BENQIW W total_charge=-1 EN=18 VN=1 WL₅X₁ heatmap_gray_cell
C	    4.3751	    0.9366	   -0.8092
C	    1.4843	    1.3580	   -0.9415
C	    2.8216	    0.9633	    1.6586
C	    2.6115	   -1.1550	   -1.8643
C	    3.9309	   -1.5312	    0.6986
C	   -1.6653	   -1.6652	   -0.5639
C	   -2.1046	   -2.9566	   -0.9726
H	   -1.3467	   -3.6425	   -1.3763
C	   -3.4347	   -3.3119	   -0.8586
H	   -3.7782	   -4.3069	   -1.1843
C	   -4.3824	   -2.4116	   -0.2881
C	   -5.7495	   -2.7783	   -0.1194
H	   -6.0697	   -3.7721	   -0.4725
C	   -6.6563	   -1.9203	    0.4852
H	   -7.7081	   -2.2209	    0.6110
C	   -6.2149	   -0.6571	    0.9607
H	   -6.9247	    0.0158	    1.4670
C	   -4.8934	   -0.2650	    0.8019
H	   -4.5609	    0.7093	    1.1851
C	   -3.9386	   -1.1089	    0.1553
C	   -2.5627	   -0.7250	   -0.0297
C	   -2.0430	    0.6078	    0.3712
C	   -2.5903	    1.8367	   -0.1404
C	   -3.5802	    1.8635	   -1.1704
H	   -3.9262	    0.9101	   -1.5929
C	   -4.0919	    3.0607	   -1.6496
H	   -4.8484	    3.0478	   -2.4498
C	   -3.6396	    4.3010	   -1.1258
H	   -4.0532	    5.2461	   -1.5105
C	   -2.6608	    4.3129	   -0.1434
H	   -2.2819	    5.2670	    0.2576
C	   -2.1061	    3.1017	    0.3628
C	   -1.0728	    3.1060	    1.3442
H	   -0.7146	    4.0716	    1.7350
C	   -0.5027	    1.9235	    1.7739
H	    0.3157	    1.9101	    2.5064
C	   -0.9610	    0.6696	    1.2718
O	    5.3111	    1.5133	   -1.2151
O	    0.7843	    2.1498	   -1.4283
O	    2.8599	    1.5307	    2.6786
O	    2.5359	   -1.7847	   -2.8405
O	    4.5966	   -2.3663	    1.1619
O	    0.7674	   -2.7517	    1.2591
O	   -0.3563	   -1.3432	   -0.7272
O	   -0.3577	   -0.4612	    1.7138
P	    0.7166	   -1.3687	    0.6617
W	    2.7538	   -0.0531	   -0.1238
