61
BIQNOE W total_charge=-1 EN=18 VN=1 WL₅X₁ heatmap_gray_cell
W	    2.8347	    0.0000	    0.0036
Si	    0.1811	   -0.0001	    0.4524
Si	   -0.9746	   -1.8872	   -0.3722
Si	   -3.2327	   -1.9593	    0.3287
Si	   -4.3871	    0.0000	   -0.2955
Si	   -3.2325	    1.9593	    0.3288
Si	   -0.9745	    1.8872	   -0.3720
O	    6.0165	    0.0001	   -0.1103
O	    2.4942	    2.2528	   -2.2721
O	    2.4938	   -2.2531	   -2.2717
O	    2.6105	   -2.2934	    2.2558
O	    2.6096	    2.2933	    2.2558
C	    4.8416	    0.0002	   -0.0863
C	    2.6348	    1.4353	   -1.4445
C	    2.6347	   -1.4355	   -1.4443
C	    2.7351	   -1.4623	    1.4412
C	    2.7347	    1.4623	    1.4412
C	   -0.2158	   -0.0002	    2.3486
H	    0.2268	   -0.8955	    2.8315
H	   -1.3051	   -0.0001	    2.5514
H	    0.2269	    0.8951	    2.8316
C	   -0.1405	   -3.4934	    0.2557
H	   -0.0564	   -3.4966	    1.3611
H	    0.8866	   -3.5620	   -0.1581
H	   -0.7047	   -4.3968	   -0.0589
C	   -1.0078	   -1.9830	   -2.2830
H	   -1.4799	   -1.0848	   -2.7280
H	   -1.5769	   -2.8745	   -2.6214
H	    0.0251	   -2.0605	   -2.6769
C	   -4.1231	   -3.4465	   -0.5014
H	   -3.6299	   -4.4018	   -0.2224
H	   -4.0898	   -3.3587	   -1.6067
H	   -5.1884	   -3.5066	   -0.1924
C	   -3.3955	   -2.2093	    2.2199
H	   -2.9697	   -1.3532	    2.7797
H	   -2.8499	   -3.1223	    2.5381
H	   -4.4602	   -2.3215	    2.5144
C	   -4.6195	   -0.0000	   -2.1964
H	   -5.1806	   -0.8990	   -2.5271
H	   -3.6395	   -0.0004	   -2.7140
H	   -5.1800	    0.8993	   -2.5273
C	   -6.1373	    0.0001	    0.4934
H	   -6.0680	    0.0001	    1.6006
H	   -6.7134	   -0.8986	    0.1869
H	   -6.7133	    0.8990	    0.1870
C	   -4.1229	    3.4465	   -0.5014
H	   -4.0897	    3.3587	   -1.6067
H	   -3.6298	    4.4018	   -0.2224
H	   -5.1883	    3.5066	   -0.1925
C	   -3.3953	    2.2093	    2.2200
H	   -2.9690	    1.3535	    2.7798
H	   -4.4600	    2.3210	    2.5146
H	   -2.8502	    3.1226	    2.5380
C	   -0.1403	    3.4934	    0.2558
H	   -0.0558	    3.4965	    1.3612
H	   -0.7047	    4.3967	   -0.0586
H	    0.8866	    3.5621	   -0.1584
C	   -1.0078	    1.9832	   -2.2829
H	   -1.4816	    1.0859	   -2.7280
H	    0.0251	    2.0591	   -2.6770
H	   -1.5755	    2.8757	   -2.6210
