35
BISHUJ W total_charge=-1 EN=18 VN=1 WL₅X₁ heatmap_gray_cell
W	   -1.5189	   -0.0001	   -0.0545
P	    0.9194	    0.0000	    0.8765
O	    1.0935	    0.0000	    2.4136
O	   -4.5873	   -0.0006	   -0.9222
O	   -2.3848	    0.0002	    3.0614
O	   -1.2504	    3.2107	    0.0165
O	   -0.6351	   -0.0001	   -3.1466
O	   -1.2499	   -3.2108	    0.0169
C	    1.9383	    1.4217	    0.2092
C	    2.6812	    2.1405	    1.1641
H	    2.6070	    1.8041	    2.2119
C	    3.4674	    3.2362	    0.7741
H	    4.0453	    3.7954	    1.5283
C	    3.5146	    3.6248	   -0.5749
H	    4.1272	    4.4875	   -0.8828
C	    2.7665	    2.9150	   -1.5303
H	    2.7913	    3.2215	   -2.5885
C	    1.9772	    1.8221	   -1.1396
H	    1.3786	    1.2870	   -1.8921
C	    1.9386	   -1.4215	    0.2092
C	    2.6821	   -2.1398	    1.1641
H	    2.6079	   -1.8033	    2.2119
C	    3.4685	   -3.2353	    0.7742
H	    4.0469	   -3.7940	    1.5284
C	    3.5155	   -3.6243	   -0.5747
H	    4.1284	   -4.4867	   -0.8826
C	    2.7669	   -2.9150	   -1.5301
H	    2.7916	   -3.2217	   -2.5882
C	    1.9773	   -1.8223	   -1.1395
H	    1.3783	   -1.2876	   -1.8920
C	   -3.4577	   -0.0004	   -0.6026
C	   -2.0624	    0.0001	    1.9447
C	   -1.3769	    2.0517	   -0.0142
C	   -0.9505	   -0.0001	   -2.0173
C	   -1.3767	   -2.0519	   -0.0139
