20
BIXKUO W total_charge=-1 EN=14 VN=3 WL₂X₃ heatmap_gray_cell
W	   -1.3886	   -0.0000	   -0.2996
S	    0.7989	    0.0002	    1.4575
S	    0.9035	   -0.0002	   -1.4491
S	   -0.9295	   -2.3909	   -0.0913
S	   -2.5118	   -1.6186	    1.0725
S	   -2.5119	    1.6189	    1.0721
S	   -0.9296	    2.3909	   -0.0919
O	   -2.2279	   -0.0003	   -1.8060
C	    1.7413	    0.0000	    0.0590
C	    3.2214	    0.0000	    0.0828
C	    3.9778	   -0.0004	   -1.1147
C	    5.3776	   -0.0004	   -1.0824
C	    6.0599	    0.0000	    0.1460
C	    5.3221	    0.0004	    1.3432
C	    3.9235	    0.0004	    1.3125
H	    3.4413	   -0.0007	   -2.0758
H	    5.9430	   -0.0007	   -2.0276
H	    7.1609	    0.0000	    0.1707
H	    5.8447	    0.0007	    2.3129
H	    3.3336	    0.0007	    2.2421
