55
BOVDUN W total_charge=+1 EN=16 VN=3 WL₄X₃ heatmap_gray_cell
W	    0.0001	    0.1181	   -0.5063
P	   -2.5379	   -0.1291	   -0.5684
P	   -0.0003	    2.3154	    0.6754
P	    2.5381	   -0.1287	   -0.5679
O	    0.0002	    0.9056	   -2.0461
O	    0.0003	   -1.9187	   -0.5902
C	    0.0002	   -2.9106	    0.2464
C	   -0.0001	   -2.7164	    1.6469
H	   -0.0001	   -3.6093	    2.2854
C	   -0.0003	   -1.4535	    2.2697
O	   -0.0002	   -0.3341	    1.6043
C	    0.0005	   -4.2822	   -0.3673
H	    0.0005	   -5.0798	    0.3968
H	    0.8887	   -4.4101	   -1.0207
H	   -0.8875	   -4.4103	   -1.0209
C	   -0.0007	   -1.3236	    3.7678
H	    0.8887	   -0.7442	    4.0934
H	   -0.0005	   -2.3002	    4.2842
H	   -0.8905	   -0.7447	    4.0930
C	   -3.0444	   -1.4921	   -1.6981
H	   -2.6009	   -2.4430	   -1.3468
H	   -2.6521	   -1.2814	   -2.7122
H	   -4.1473	   -1.5913	   -1.7414
C	   -3.3528	   -0.5646	    1.0207
H	   -3.1854	    0.2390	    1.7622
H	   -2.8987	   -1.4980	    1.4081
H	   -4.4410	   -0.7188	    0.8799
C	   -3.4678	    1.3110	   -1.2327
H	   -4.5410	    1.0658	   -1.3609
H	   -3.0312	    1.5836	   -2.2135
H	   -3.3736	    2.1806	   -0.5553
C	   -1.4160	    2.6474	    1.8079
H	   -1.2966	    3.6242	    2.3173
H	   -1.4466	    1.8393	    2.5638
H	   -2.3667	    2.6487	    1.2432
C	   -0.0007	    3.7359	   -0.4870
H	   -0.8943	    3.6715	   -1.1366
H	    0.8931	    3.6721	   -1.1364
H	   -0.0011	    4.6995	    0.0593
C	    1.4153	    2.6480	    1.8078
H	    1.2955	    3.6248	    2.3172
H	    2.3659	    2.6497	    1.2429
H	    1.4464	    1.8399	    2.5636
C	    3.4682	    1.3115	   -1.2319
H	    4.5413	    1.0662	   -1.3603
H	    3.3740	    2.1810	   -0.5544
H	    3.0315	    1.5843	   -2.2126
C	    3.0449	   -1.4915	   -1.6977
H	    4.1478	   -1.5907	   -1.7408
H	    2.6529	   -1.2806	   -2.7119
H	    2.6012	   -2.4425	   -1.3467
C	    3.3526	   -0.5642	    1.0213
H	    2.8986	   -1.4979	    1.4084
H	    3.1848	    0.2392	    1.7629
H	    4.4409	   -0.7182	    0.8808
