43
CELPIU W total_charge=+1 EN=18 VN=1 WL₆X₁ heatmap_gray_cell
W	   -0.0499	   -0.7073	    0.1198
O	   -1.0544	   -0.9360	    3.0814
O	   -1.4507	    1.0103	   -0.1174
N	    1.3842	    2.1331	    0.6478
N	    2.4406	    1.0929	   -0.9345
C	   -0.3380	   -2.9526	   -0.2926
H	   -0.0563	   -3.7066	    0.4519
C	    0.5134	   -2.4143	   -1.3269
H	    1.5516	   -2.7129	   -1.5140
C	   -0.2792	   -1.5380	   -2.1500
H	    0.0363	   -1.0358	   -3.0720
C	   -1.5995	   -1.5386	   -1.6108
H	   -2.4444	   -0.9558	   -2.0013
C	   -1.6471	   -2.3913	   -0.4682
H	   -2.5323	   -2.6148	    0.1389
C	   -0.6535	   -0.7796	    1.9889
C	    1.5989	   -1.2107	    1.1085
C	    1.3595	    0.9709	   -0.0931
C	    3.1024	    2.2949	   -0.7362
H	    3.9921	    2.5761	   -1.3075
C	    2.4307	    2.9559	    0.2561
H	    2.6152	    3.9304	    0.7181
C	    0.4894	    2.4611	    1.7475
H	   -0.4046	    3.0117	    1.3936
H	    1.0306	    3.0870	    2.4797
H	    0.1666	    1.5214	    2.2319
C	    2.8971	    0.0689	   -1.8622
H	    3.2529	   -0.8227	   -1.3105
H	    3.7308	    0.4737	   -2.4625
H	    2.0773	   -0.2269	   -2.5405
C	   -2.7316	    1.1164	    0.5948
H	   -2.5127	    1.1554	    1.6783
H	   -3.3136	    0.1950	    0.3823
C	   -3.3812	    2.3704	    0.0277
H	   -3.0344	    3.2723	    0.5732
H	   -4.4847	    2.3369	    0.1009
C	   -2.8682	    2.3821	   -1.4198
H	   -3.4332	    1.6559	   -2.0400
H	   -2.9467	    3.3734	   -1.9051
C	   -1.4224	    1.9362	   -1.2543
H	   -0.9976	    1.3909	   -2.1185
H	   -0.7436	    2.7764	   -0.9963
O	    2.5737	   -1.4882	    1.6865
