55
CEQQOH W total_charge=+1 EN=18 VN=1 WL₆X₁ heatmap_gray_cell
W	    0.9610	   -0.2844	    0.1243
C	   -0.5350	    0.1301	    1.4242
O	   -1.3383	    0.4252	    2.2083
C	    1.2161	   -1.6586	    1.5648
O	    1.4147	   -2.4359	    2.4035
C	    0.8700	   -2.0245	   -0.8831
O	    0.8864	   -3.0097	   -1.5011
C	    1.9004	    1.8911	    0.4349
C	    2.7412	    0.8943	    1.0610
C	    3.2589	    0.0237	    0.0175
C	    2.7277	    0.4844	   -1.2491
C	    1.9044	    1.6453	   -0.9868
C	    1.2844	    3.0706	    1.1244
H	    2.0188	    3.9022	    1.1782
H	    0.9786	    2.8336	    2.1606
H	    0.3973	    3.4509	    0.5840
C	    3.1546	    0.8884	    2.5025
H	    3.4614	   -0.1176	    2.8440
H	    2.3436	    1.2418	    3.1667
H	    4.0225	    1.5663	    2.6464
C	    4.2990	   -1.0419	    0.1948
H	    5.3125	   -0.6016	    0.0845
H	    4.2014	   -1.8446	   -0.5601
H	    4.2488	   -1.5089	    1.1961
C	    3.1105	   -0.0313	   -2.6044
H	    2.2970	    0.0975	   -3.3434
H	    3.3775	   -1.1042	   -2.5775
H	    3.9951	    0.5211	   -2.9863
C	    1.3109	    2.5434	   -2.0256
H	    2.0390	    3.3440	   -2.2772
H	    0.3892	    3.0450	   -1.6740
H	    1.0863	    2.0078	   -2.9677
P	   -1.0577	   -0.0357	   -1.4082
H	   -0.9685	    1.1341	   -2.2216
H	   -1.1303	   -1.0133	   -2.4453
C	   -2.7467	    0.0244	   -0.7370
C	   -3.4286	   -1.1969	   -0.4853
C	   -4.7213	   -1.1284	    0.0597
H	   -5.2598	   -2.0692	    0.2549
C	   -5.3406	    0.0958	    0.3742
C	   -4.6166	    1.2819	    0.1492
H	   -5.0723	    2.2483	    0.4164
C	   -3.3223	    1.2773	   -0.3953
C	   -2.5821	    2.5789	   -0.5790
H	   -3.1459	    3.4203	   -0.1354
H	   -2.4194	    2.8218	   -1.6510
H	   -1.5854	    2.5544	   -0.0876
C	   -6.7401	    0.1357	    0.9246
H	   -6.9703	   -0.7659	    1.5244
H	   -7.4803	    0.1739	    0.0966
H	   -6.9085	    1.0306	    1.5541
C	   -2.7955	   -2.5369	   -0.7608
H	   -2.5873	   -2.6915	   -1.8409
H	   -3.4547	   -3.3621	   -0.4344
H	   -1.8308	   -2.6488	   -0.2210
