58
CUMYOY W total_charge=-1 EN=16 VN=3 WL₃X₃ heatmap_gray_cell
W	   -0.0806	   -0.1326	   -1.1472
O	   -0.1776	   -0.2187	   -2.8682
S	    1.7021	    1.4362	   -0.7091
S	    1.5712	   -1.6881	   -0.3137
S	   -1.5920	    1.5011	   -0.2826
S	   -1.6900	   -1.6540	   -0.2703
C	    1.3841	    2.6677	    0.6115
H	    0.4799	    3.2237	    0.3021
H	    2.2607	    3.3363	    0.7018
H	    1.1841	    2.1429	    1.5631
C	    3.1544	    0.5805	    0.0081
C	    4.2887	    1.4306	    0.3917
C	    4.6715	    2.5469	   -0.3971
H	    4.1117	    2.7561	   -1.3221
C	    5.7448	    3.3656	   -0.0219
H	    6.0221	    4.2211	   -0.6581
C	    6.4692	    3.0976	    1.1516
H	    7.3126	    3.7410	    1.4459
C	    6.0963	    2.0017	    1.9500
H	    6.6466	    1.7849	    2.8793
C	    5.0210	    1.1852	    1.5829
H	    4.7273	    0.3391	    2.2206
C	    3.0698	   -0.7865	    0.0605
C	    4.2235	   -1.6519	    0.4022
C	    4.0774	   -2.7174	    1.3212
H	    3.0903	   -2.8854	    1.7768
C	    5.1655	   -3.5409	    1.6419
H	    5.0320	   -4.3596	    2.3665
C	    6.4181	   -3.3295	    1.0426
H	    7.2713	   -3.9789	    1.2933
C	    6.5695	   -2.2871	    0.1120
H	    7.5425	   -2.1203	   -0.3764
C	    5.4865	   -1.4580	   -0.2054
H	    5.6053	   -0.6468	   -0.9381
C	   -3.1234	    0.6608	    0.1412
C	   -4.2180	    1.5509	    0.5784
C	   -5.0265	    1.2360	    1.6999
H	   -4.8320	    0.3034	    2.2486
C	   -6.0522	    2.0936	    2.1155
H	   -6.6639	    1.8224	    2.9907
C	   -6.2966	    3.2978	    1.4322
H	   -7.1030	    3.9719	    1.7614
C	   -5.4913	    3.6352	    0.3318
H	   -5.6658	    4.5786	   -0.2102
C	   -4.4639	    2.7783	   -0.0861
H	   -3.8283	    3.0423	   -0.9446
C	   -3.1719	   -0.7099	    0.0965
C	   -4.3853	   -1.5288	    0.3012
C	   -5.6212	   -1.1740	   -0.2942
H	   -5.6675	   -0.2702	   -0.9186
C	   -6.7660	   -1.9572	   -0.1030
H	   -7.7135	   -1.6576	   -0.5787
C	   -6.7095	   -3.1237	    0.6794
H	   -7.6104	   -3.7396	    0.8276
C	   -5.4866	   -3.5007	    1.2590
H	   -5.4245	   -4.4171	    1.8676
C	   -4.3392	   -2.7185	    1.0690
H	   -3.3792	   -3.0163	    1.5167
