58
DACTOQ W total_charge=+1 EN=16 VN=1 WL₅X₁ heatmap_gray_cell
W	    0.6015	   -0.2112	   -0.4339
P	    2.6010	    1.2448	   -0.3096
P	    1.1465	   -1.3406	    1.6847
C	   -0.2019	    1.4734	    0.3640
C	   -1.1971	    0.5796	    0.0949
C	   -2.6381	    0.3980	    0.0424
C	   -3.2132	   -0.8569	    0.3566
C	   -4.5979	   -1.0484	    0.3118
C	   -5.4671	   -0.0092	   -0.0815
C	   -6.9580	   -0.2069	   -0.1296
C	   -4.8915	    1.2358	   -0.4218
C	   -3.5120	    1.4440	   -0.3511
C	    3.1024	    1.9711	    1.3118
C	    2.4045	    2.7617	   -1.3401
C	    4.2052	    0.5672	   -0.9279
C	    0.7478	   -0.2628	    3.1244
C	    2.8723	   -1.9069	    2.0048
C	    0.1581	   -2.8497	    2.0778
O	   -0.0189	    2.6604	    0.9424
C	   -1.1807	    3.3405	    1.4594
C	    1.8580	   -1.6003	   -1.9878
C	    1.0522	   -2.5171	   -1.2654
C	   -0.3229	   -2.1655	   -1.4388
C	   -0.3639	   -1.0158	   -2.3024
C	    0.9981	   -0.6447	   -2.6429
H	    4.4757	   -0.3519	   -0.3733
H	    0.3967	   -3.2179	    3.0957
H	    0.3615	   -3.6561	    1.3486
H	   -5.0194	   -2.0299	    0.5790
H	   -7.3862	    0.1768	   -1.0775
H	   -7.4562	    0.3489	    0.6931
H	   -7.2360	   -1.2731	   -0.0292
H	    0.9928	   -0.7823	    4.0721
H	   -0.3352	   -0.0353	    3.0975
H	    2.1789	    2.4707	   -2.3840
H	    3.3214	    3.3843	   -1.3201
H	   -3.0949	    2.4216	   -0.6344
H	    2.9510	   -1.6322	   -2.0477
H	    1.4318	   -3.3593	   -0.6739
H	   -1.1884	   -2.7091	   -1.0454
H	   -1.2777	   -0.5348	   -2.6733
H	    1.3082	    0.1045	   -3.3805
H	   -0.8050	    4.1613	    2.0961
H	   -1.7839	    3.7622	    0.6305
H	    3.1817	   -2.6122	    1.2093
H	    3.5602	   -1.0403	    1.9859
H	    4.1253	    0.3244	   -2.0047
H	    5.0088	    1.3190	   -0.7966
H	   -2.5501	   -1.6812	    0.6582
H	   -5.5449	    2.0600	   -0.7485
H	    3.9361	    2.6874	    1.1703
H	    3.4308	    1.1771	    2.0093
H	    2.2317	    2.5015	    1.7407
H	    1.5525	    3.3438	   -0.9410
H	    1.3089	    0.6866	    3.0628
H	    2.9502	   -2.4125	    2.9882
H	   -0.9168	   -2.5907	    2.0257
H	   -1.8066	    2.6483	    2.0574
