51
DIBHUS W total_charge=+1 EN=16 VN=1 WL₅X₁ heatmap_gray_cell
W	   -0.7069	    0.0002	   -0.0806
P	   -0.7074	    2.5086	    0.0404
P	   -0.7084	   -2.5083	    0.0369
O	   -3.0493	   -0.0010	    2.0628
O	   -2.4706	    0.0021	   -2.5304
N	    1.1324	    0.0007	   -1.2820
N	   -1.8432	    0.0014	   -1.5182
N	    0.9995	   -0.0013	    1.3443
C	    1.1197	    0.0019	   -2.6438
C	    2.2830	    0.0025	   -3.4091
C	    3.5322	    0.0019	   -2.7593
C	    3.5565	    0.0007	   -1.3638
C	    3.3943	   -0.0022	    1.6762
C	    3.2194	   -0.0033	    3.0621
C	    1.9123	   -0.0034	    3.5818
C	    0.8377	   -0.0023	    2.6937
C	    2.2711	   -0.0012	    0.8258
C	    2.3479	    0.0001	   -0.6393
C	   -2.2049	   -0.0005	    1.2498
C	   -0.4319	    3.2151	    1.7188
C	   -2.2990	    3.2501	   -0.4965
C	    0.5553	    3.3715	   -0.9902
C	   -2.3003	   -3.2485	   -0.5009
C	   -0.4330	   -3.2174	    1.7142
C	    0.5540	   -3.3702	   -0.9949
H	    0.1262	    0.0023	   -3.1162
H	    2.2079	    0.0034	   -4.5055
H	    4.4687	    0.0024	   -3.3347
H	    4.5164	    0.0003	   -0.8307
H	    4.4060	   -0.0021	    1.2500
H	    4.0912	   -0.0042	    3.7322
H	    1.7243	   -0.0042	    4.6644
H	   -0.2014	   -0.0023	    3.0543
H	    0.5612	    2.9049	    2.0988
H	   -1.2095	    2.8292	    2.4068
H	   -0.4806	    4.3221	    1.6983
H	   -2.5206	    2.9245	   -1.5315
H	   -3.1075	    2.8772	    0.1618
H	   -2.2649	    4.3570	   -0.4539
H	    1.5689	    3.0515	   -0.6775
H	    0.4755	    4.4725	   -0.8926
H	    0.4146	    3.0890	   -2.0519
H	   -3.1085	   -2.8763	    0.1581
H	   -2.5220	   -2.9213	   -1.5354
H	   -2.2666	   -4.3554	   -0.4599
H	   -0.4824	   -4.3243	    1.6919
H	   -1.2102	   -2.8322	    2.4029
H	    0.5604	   -2.9085	    2.0945
H	    1.5677	   -3.0510	   -0.6817
H	    0.4738	   -4.4714	   -0.8988
H	    0.4135	   -3.0863	   -2.0563
